#Fichier XDMF_DATA
#Analysed Files: /home/mlamari/Post_Doc_1/Test_Preliminaire/FEniCSX/J_TestMaille/results_plasticity_Dogbone_vM_maille_01_tempsx4/results_.vtm
#[1] Increment   [2] VonMisesStressBulk   [3] CumulativePlasticStrainBulk   [4] TotalStrainBulk   [5] StressXXBulk   [6] PlasticStrainBulk   [7] ForceBordGauche   [8] StressXXBordGauche   [9] TotalStrainBordGauche   [10] VonMisesStressOzx   [11] CumulativePlasticStrainOzx   [12] TotalStrainOzx   [13] StressXXOzx   [14] PlasticStrainOzx
00001   0.4375431   0.0   2.2e-06   0.4383843   0.0   0.218924   0.1459493   7e-07   0.4358377   0.0   2.2e-06   0.4373041   0.0   
00002   0.8750862   0.0   4.4e-06   0.8767687   0.0   0.437848   0.2918987   1.4e-06   0.8716755   0.0   4.4e-06   0.8746082   0.0   
00003   1.3126293   0.0   6.6e-06   1.315153   0.0   0.656772   0.437848   2.1e-06   1.3075132   0.0   6.5e-06   1.3119123   0.0   
00004   1.7501724   0.0   8.8e-06   1.7535374   0.0   0.8756961   0.5837974   2.7e-06   1.743351   0.0   8.7e-06   1.7492164   0.0   
00005   2.1877156   0.0   1.09e-05   2.1919217   0.0   1.0946201   0.7297467   3.4e-06   2.1791887   0.0   1.09e-05   2.1865205   0.0   
00006   2.6252587   0.0   1.31e-05   2.630306   0.0   1.3135441   0.8756961   4.1e-06   2.6150264   0.0   1.31e-05   2.6238246   0.0   
00007   3.0628018   0.0   1.53e-05   3.0686904   0.0   1.5324681   1.0216454   4.8e-06   3.0508642   0.0   1.53e-05   3.0611286   0.0   
00008   3.5003449   0.0   1.75e-05   3.5070747   0.0   1.7513921   1.1675948   5.5e-06   3.4867019   0.0   1.75e-05   3.4984327   0.0   
00009   3.937888   0.0   1.97e-05   3.9454591   0.0   1.9703161   1.3135441   6.2e-06   3.9225397   0.0   1.96e-05   3.9357368   0.0   
00010   4.3754311   0.0   2.19e-05   4.3838434   0.0   2.1892402   1.4594934   6.9e-06   4.3583774   0.0   2.18e-05   4.3730409   0.0   
00011   4.8129742   0.0   2.41e-05   4.8222277   0.0   2.4081642   1.6054428   7.5e-06   4.7942151   0.0   2.4e-05   4.810345   0.0   
00012   5.2505173   0.0   2.63e-05   5.2606121   0.0   2.6270882   1.7513921   8.2e-06   5.2300529   0.0   2.62e-05   5.2476491   0.0   
00013   5.6880604   0.0   2.85e-05   5.6989964   0.0   2.8460122   1.8973415   8.9e-06   5.6658906   0.0   2.84e-05   5.6849532   0.0   
00014   6.1256035   0.0   3.06e-05   6.1373807   0.0   3.0649362   2.0432908   9.6e-06   6.1017284   0.0   3.05e-05   6.1222573   0.0   
00015   6.5631467   0.0   3.28e-05   6.5757651   0.0   3.2838602   2.1892402   1.03e-05   6.5375661   0.0   3.27e-05   6.5595614   0.0   
00016   7.0006898   0.0   3.5e-05   7.0141494   0.0   3.5027843   2.3351895   1.1e-05   6.9734038   0.0   3.49e-05   6.9968655   0.0   
00017   7.4382329   0.0   3.72e-05   7.4525338   0.0   3.7217083   2.4811388   1.16e-05   7.4092416   0.0   3.71e-05   7.4341696   0.0   
00018   7.875776   0.0   3.94e-05   7.8909181   0.0   3.9406323   2.6270882   1.23e-05   7.8450793   0.0   3.93e-05   7.8714736   0.0   
00019   8.3133191   0.0   4.16e-05   8.3293024   0.0   4.1595563   2.7730375   1.3e-05   8.280917   0.0   4.15e-05   8.3087777   0.0   
00020   8.7508622   0.0   4.38e-05   8.7676868   0.0   4.3784803   2.9189869   1.37e-05   8.7167548   0.0   4.36e-05   8.7460818   0.0   
00021   9.1884053   0.0   4.6e-05   9.2060711   0.0   4.5974043   3.0649362   1.44e-05   9.1525925   0.0   4.58e-05   9.1833859   0.0   
00022   9.6259484   0.0   4.82e-05   9.6444555   0.0   4.8163284   3.2108856   1.51e-05   9.5884303   0.0   4.8e-05   9.62069   0.0   
00023   10.0634915   0.0   5.03e-05   10.0828398   0.0   5.0352524   3.3568349   1.58e-05   10.024268   0.0   5.02e-05   10.0579941   0.0   
00024   10.5010346   0.0   5.25e-05   10.5212241   0.0   5.2541764   3.5027843   1.64e-05   10.4601058   0.0   5.24e-05   10.4952982   0.0   
00025   10.9385777   0.0   5.47e-05   10.9596085   0.0   5.4731004   3.6487336   1.71e-05   10.8959435   0.0   5.45e-05   10.9326023   0.0   
00026   11.3761209   0.0   5.69e-05   11.3979928   0.0   5.6920244   3.794683   1.78e-05   11.3317812   0.0   5.67e-05   11.3699064   0.0   
00027   11.813664   0.0   5.91e-05   11.8363772   0.0   5.9109484   3.9406323   1.85e-05   11.767619   0.0   5.89e-05   11.8072105   0.0   
00028   12.2512071   0.0   6.13e-05   12.2747615   0.0   6.1298724   4.0865816   1.92e-05   12.2034567   0.0   6.11e-05   12.2445145   0.0   
00029   12.6887502   0.0   6.35e-05   12.7131458   0.0   6.3487965   4.232531   1.99e-05   12.6392945   0.0   6.33e-05   12.6818186   0.0   
00030   13.1262933   0.0   6.57e-05   13.1515302   0.0   6.5677205   4.3784803   2.06e-05   13.0751322   0.0   6.55e-05   13.1191227   0.0   
00031   13.5638364   0.0   6.79e-05   13.5899145   0.0   6.7866445   4.5244297   2.12e-05   13.5109699   0.0   6.76e-05   13.5564268   0.0   
00032   14.0013795   0.0   7.01e-05   14.0282989   0.0   7.0055685   4.670379   2.19e-05   13.9468077   0.0   6.98e-05   13.9937309   0.0   
00033   14.4389226   0.0   7.22e-05   14.4666832   0.0   7.2244925   4.8163284   2.26e-05   14.3826454   0.0   7.2e-05   14.431035   0.0   
00034   14.8764657   0.0   7.44e-05   14.9050675   0.0   7.4434165   4.9622777   2.33e-05   14.8184832   0.0   7.42e-05   14.8683391   0.0   
00035   15.3140089   0.0   7.66e-05   15.3434519   0.0   7.6623406   5.108227   2.4e-05   15.2543209   0.0   7.64e-05   15.3056432   0.0   
00036   15.751552   0.0   7.88e-05   15.7818362   0.0   7.8812646   5.2541764   2.47e-05   15.6901586   0.0   7.85e-05   15.7429473   0.0   
00037   16.1890951   0.0   8.1e-05   16.2202206   0.0   8.1001886   5.4001257   2.54e-05   16.1259964   0.0   8.07e-05   16.1802514   0.0   
00038   16.6266382   0.0   8.32e-05   16.6586049   0.0   8.3191126   5.5460751   2.6e-05   16.5618341   0.0   8.29e-05   16.6175555   0.0   
00039   17.0641813   0.0   8.54e-05   17.0969892   0.0   8.5380366   5.6920244   2.67e-05   16.9976719   0.0   8.51e-05   17.0548595   0.0   
00040   17.5017244   0.0   8.76e-05   17.5353736   0.0   8.7569607   5.8379738   2.74e-05   17.4335096   0.0   8.73e-05   17.4921637   0.0   
00041   17.9392675   0.0   8.98e-05   17.9737579   0.0   8.9758847   5.9839231   2.81e-05   17.8693473   0.0   8.95e-05   17.9294677   0.0   
00042   18.3768106   0.0   9.19e-05   18.4121422   0.0   9.1948087   6.1298724   2.88e-05   18.3051851   0.0   9.16e-05   18.3667718   0.0   
00043   18.8143537   0.0   9.41e-05   18.8505266   0.0   9.4137327   6.2758218   2.95e-05   18.7410229   0.0   9.38e-05   18.8040759   0.0   
00044   19.2518968   0.0   9.63e-05   19.2889109   0.0   9.6326567   6.4217711   3.01e-05   19.1768606   0.0   9.6e-05   19.24138   0.0   
00045   19.68944   0.0   9.85e-05   19.7272953   0.0   9.8515807   6.5677205   3.08e-05   19.6126983   0.0   9.82e-05   19.6786841   0.0   
00046   20.1269831   0.0   0.0001007   20.1656796   0.0   10.0705048   6.7136698   3.15e-05   20.048536   0.0   0.0001004   20.1159882   0.0   
00047   20.5645262   0.0   0.0001029   20.6040639   0.0   10.2894288   6.8596192   3.22e-05   20.4843738   0.0   0.0001025   20.5532923   0.0   
00048   21.0020693   0.0   0.0001051   21.0424483   0.0   10.5083528   7.0055685   3.29e-05   20.9202115   0.0   0.0001047   20.9905964   0.0   
00049   21.4396124   0.0   0.0001073   21.4808326   0.0   10.7272768   7.1515179   3.36e-05   21.3560493   0.0   0.0001069   21.4279005   0.0   
00050   21.8771555   0.0   0.0001095   21.919217   0.0   10.9462008   7.2974672   3.43e-05   21.791887   0.0   0.0001091   21.8652046   0.0   
00051   22.3146986   0.0   0.0001116   22.3576013   0.0   11.1651248   7.4434166   3.49e-05   22.2277247   0.0   0.0001113   22.3025087   0.0   
00052   22.7522417   0.0   0.0001138   22.7959856   0.0   11.3840489   7.5893659   3.56e-05   22.6635625   0.0   0.0001135   22.7398127   0.0   
00053   23.1897848   0.0   0.000116   23.23437   0.0   11.6029728   7.7353152   3.63e-05   23.0994002   0.0   0.0001156   23.1771168   0.0   
00054   23.627328   0.0   0.0001182   23.6727543   0.0   11.8218969   7.8812646   3.7e-05   23.535238   0.0   0.0001178   23.6144209   0.0   
00055   24.0648711   0.0   0.0001204   24.1111387   0.0   12.0408209   8.0272139   3.77e-05   23.9710757   0.0   0.00012   24.051725   0.0   
00056   24.5024142   0.0   0.0001226   24.549523   0.0   12.2597449   8.1731633   3.84e-05   24.4069135   0.0   0.0001222   24.4890291   0.0   
00057   24.9399573   0.0   0.0001248   24.9879073   0.0   12.4786689   8.3191126   3.91e-05   24.8427511   0.0   0.0001244   24.9263332   0.0   
00058   25.3775004   0.0   0.000127   25.4262917   0.0   12.6975929   8.465062   3.97e-05   25.2785889   0.0   0.0001266   25.3636373   0.0   
00059   25.8150435   0.0   0.0001292   25.864676   0.0   12.916517   8.6110113   4.04e-05   25.7144267   0.0   0.0001287   25.8009414   0.0   
00060   26.2525866   0.0   0.0001313   26.3030604   0.0   13.1354409   8.7569606   4.11e-05   26.1502644   0.0   0.0001309   26.2382454   0.0   
00061   26.6901297   0.0   0.0001335   26.7414447   0.0   13.354365   8.90291   4.18e-05   26.5861021   0.0   0.0001331   26.6755496   0.0   
00062   27.1276728   0.0   0.0001357   27.179829   0.0   13.573289   9.0488593   4.25e-05   27.0219399   0.0   0.0001353   27.1128537   0.0   
00063   27.5652159   0.0   0.0001379   27.6182134   0.0   13.792213   9.1948087   4.32e-05   27.4577776   0.0   0.0001375   27.5501577   0.0   
00064   28.0027591   0.0   0.0001401   28.0565977   0.0   14.011137   9.340758   4.39e-05   27.8936154   0.0   0.0001396   27.9874618   0.0   
00065   28.4403022   0.0   0.0001423   28.494982   0.0   14.230061   9.4867074   4.45e-05   28.3294531   0.0   0.0001418   28.4247659   0.0   
00066   28.8778453   0.0   0.0001445   28.9333664   0.0   14.4489851   9.6326567   4.52e-05   28.7652908   0.0   0.000144   28.86207   0.0   
00067   29.3153884   0.0   0.0001467   29.3717507   0.0   14.6679091   9.7786061   4.59e-05   29.2011286   0.0   0.0001462   29.2993741   0.0   
00068   29.7529315   0.0   0.0001489   29.8101351   0.0   14.8868331   9.9245554   4.66e-05   29.6369663   0.0   0.0001484   29.7366782   0.0   
00069   30.1904746   0.0   0.000151   30.2485194   0.0   15.1057572   10.0705048   4.73e-05   30.072804   0.0   0.0001506   30.1739822   0.0   
00070   30.6280177   0.0   0.0001532   30.6869037   0.0   15.3246811   10.2164541   4.8e-05   30.5086418   0.0   0.0001527   30.6112864   0.0   
00071   31.0655608   0.0   0.0001554   31.1252881   0.0   15.5436052   10.3624035   4.86e-05   30.9444795   0.0   0.0001549   31.0485905   0.0   
00072   31.5031039   0.0   0.0001576   31.5636724   0.0   15.7625292   10.5083528   4.93e-05   31.3803173   0.0   0.0001571   31.4858945   0.0   
00073   31.940647   0.0   0.0001598   32.0020568   0.0   15.9814532   10.6543021   5e-05   31.816155   0.0   0.0001593   31.9231986   0.0   
00074   32.3781901   0.0   0.000162   32.4404411   0.0   16.2003772   10.8002515   5.07e-05   32.2519928   0.0   0.0001615   32.3605027   0.0   
00075   32.8157333   0.0   0.0001642   32.8788254   0.0   16.4193012   10.9462008   5.14e-05   32.6878305   0.0   0.0001636   32.7978068   0.0   
00076   33.2532764   0.0   0.0001664   33.3172098   0.0   16.6382252   11.0921502   5.21e-05   33.1236682   0.0   0.0001658   33.2351109   0.0   
00077   33.6908195   0.0   0.0001686   33.7555941   0.0   16.8571492   11.2380995   5.28e-05   33.559506   0.0   0.000168   33.672415   0.0   
00078   34.1283626   0.0   0.0001708   34.1939784   0.0   17.0760733   11.3840489   5.34e-05   33.9953438   0.0   0.0001702   34.1097191   0.0   
00079   34.5659057   0.0   0.0001729   34.6323628   0.0   17.2949973   11.5299982   5.41e-05   34.4311814   0.0   0.0001724   34.5470232   0.0   
00080   35.0034488   0.0   0.0001751   35.0707471   0.0   17.5139213   11.6759475   5.48e-05   34.8670192   0.0   0.0001746   34.9843273   0.0   
00081   35.4409919   0.0   0.0001773   35.5091315   0.0   17.7328453   11.8218969   5.55e-05   35.3028569   0.0   0.0001767   35.4216314   0.0   
00082   35.878535   0.0   0.0001795   35.9475158   0.0   17.9517694   11.9678462   5.62e-05   35.7386947   0.0   0.0001789   35.8589354   0.0   
00083   36.3160781   0.0   0.0001817   36.3859002   0.0   18.1706934   12.1137956   5.69e-05   36.1745324   0.0   0.0001811   36.2962395   0.0   
00084   36.7536213   0.0   0.0001839   36.8242845   0.0   18.3896173   12.2597449   5.76e-05   36.6103701   0.0   0.0001833   36.7335436   0.0   
00085   37.1911643   0.0   0.0001861   37.2626688   0.0   18.6085414   12.4056943   5.82e-05   37.0462078   0.0   0.0001855   37.1708478   0.0   
00086   37.6287075   0.0   0.0001883   37.7010532   0.0   18.8274654   12.5516436   5.89e-05   37.4820457   0.0   0.0001876   37.6081518   0.0   
00087   38.0662506   0.0   0.0001905   38.1394375   0.0   19.0463894   12.697593   5.96e-05   37.9178834   0.0   0.0001898   38.0454559   0.0   
00088   38.5037937   0.0   0.0001926   38.5778218   0.0   19.2653134   12.8435423   6.03e-05   38.3537211   0.0   0.000192   38.48276   0.0   
00089   38.9413368   0.0   0.0001948   39.0162062   0.0   19.4842374   12.9894916   6.1e-05   38.7895589   0.0   0.0001942   38.9200641   0.0   
00090   39.3788799   0.0   0.000197   39.4545905   0.0   19.7031614   13.135441   6.17e-05   39.2253966   0.0   0.0001964   39.3573682   0.0   
00091   39.816423   0.0   0.0001992   39.8929749   0.0   19.9220854   13.2813903   6.24e-05   39.6612343   0.0   0.0001986   39.7946723   0.0   
00092   40.2539661   0.0   0.0002014   40.3313592   0.0   20.1410095   13.4273397   6.3e-05   40.0970721   0.0   0.0002007   40.2319764   0.0   
00093   40.6915092   0.0   0.0002036   40.7697435   0.0   20.3599335   13.573289   6.37e-05   40.5329098   0.0   0.0002029   40.6692804   0.0   
00094   41.1290524   0.0   0.0002058   41.2081279   0.0   20.5788575   13.7192384   6.44e-05   40.9687475   0.0   0.0002051   41.1065845   0.0   
00095   41.5665955   0.0   0.000208   41.6465122   0.0   20.7977815   13.8651877   6.51e-05   41.4045853   0.0   0.0002073   41.5438887   0.0   
00096   42.0041386   0.0   0.0002102   42.0848966   0.0   21.0167056   14.011137   6.58e-05   41.8404231   0.0   0.0002095   41.9811928   0.0   
00097   42.4416817   0.0   0.0002123   42.5232809   0.0   21.2356296   14.1570864   6.65e-05   42.2762608   0.0   0.0002116   42.4184968   0.0   
00098   42.8792248   0.0   0.0002145   42.9616652   0.0   21.4545536   14.3030357   6.71e-05   42.7120985   0.0   0.0002138   42.855801   0.0   
00099   43.3167679   0.0   0.0002167   43.4000496   0.0   21.6734776   14.4489851   6.78e-05   43.1479362   0.0   0.000216   43.293105   0.0   
00100   43.754311   0.0   0.0002189   43.8384339   0.0   21.8924017   14.5949344   6.85e-05   43.5837739   0.0   0.0002182   43.7304091   0.0   
00101   44.1918541   0.0   0.0002211   44.2768183   0.0   22.1113256   14.7408838   6.92e-05   44.0196117   0.0   0.0002204   44.1677133   0.0   
00102   44.6293972   0.0   0.0002233   44.7152026   0.0   22.3302497   14.8868331   6.99e-05   44.4554494   0.0   0.0002226   44.6050173   0.0   
00103   45.0669403   0.0   0.0002255   45.1535869   0.0   22.5491737   15.0327825   7.06e-05   44.8912872   0.0   0.0002247   45.0423214   0.0   
00104   45.5044835   0.0   0.0002277   45.5919713   0.0   22.7680977   15.1787318   7.13e-05   45.3271249   0.0   0.0002269   45.4796255   0.0   
00105   45.9420266   0.0   0.0002299   46.0303556   0.0   22.9870217   15.3246811   7.19e-05   45.7629627   0.0   0.0002291   45.9169296   0.0   
00106   46.3795697   0.0   0.000232   46.4687399   0.0   23.2059457   15.4706304   7.26e-05   46.1988004   0.0   0.0002313   46.3542336   0.0   
00107   46.8171128   0.0   0.0002342   46.9071243   0.0   23.4248697   15.6165798   7.33e-05   46.6346382   0.0   0.0002335   46.7915377   0.0   
00108   47.2546559   0.0   0.0002364   47.3455086   0.0   23.6437937   15.7625292   7.4e-05   47.0704759   0.0   0.0002356   47.2288418   0.0   
00109   47.692199   0.0   0.0002386   47.783893   0.0   23.8627177   15.9084785   7.47e-05   47.5063136   0.0   0.0002378   47.6661459   0.0   
00110   48.1297421   0.0   0.0002408   48.2222773   0.0   24.0816418   16.0544278   7.54e-05   47.9421514   0.0   0.00024   48.10345   0.0   
00111   48.5672852   0.0   0.000243   48.6606616   0.0   24.3005658   16.2003772   7.61e-05   48.3779891   0.0   0.0002422   48.5407541   0.0   
00112   49.0048283   0.0   0.0002452   49.099046   0.0   24.5194898   16.3463265   7.67e-05   48.8138269   0.0   0.0002444   48.9780582   0.0   
00113   49.4423714   0.0   0.0002474   49.5374303   0.0   24.7384138   16.4922759   7.74e-05   49.2496646   0.0   0.0002466   49.4153623   0.0   
00114   49.8799145   0.0   0.0002496   49.9758147   0.0   24.9573379   16.6382252   7.81e-05   49.6855023   0.0   0.0002487   49.8526663   0.0   
00115   50.3174577   0.0   0.0002517   50.414199   0.0   25.1762619   16.7841746   7.88e-05   50.1213401   0.0   0.0002509   50.2899705   0.0   
00116   50.7550008   0.0   0.0002539   50.8525833   0.0   25.3951859   16.9301239   7.95e-05   50.5571778   0.0   0.0002531   50.7272746   0.0   
00117   51.1925439   0.0   0.0002561   51.2909677   0.0   25.6141099   17.0760733   8.02e-05   50.9930156   0.0   0.0002553   51.1645786   0.0   
00118   51.630087   0.0   0.0002583   51.729352   0.0   25.8330339   17.2220226   8.09e-05   51.4288533   0.0   0.0002575   51.6018828   0.0   
00119   52.0676301   0.0   0.0002605   52.1677364   0.0   26.051958   17.367972   8.15e-05   51.864691   0.0   0.0002596   52.0391869   0.0   
00120   52.5051732   0.0   0.0002627   52.6061207   0.0   26.2708819   17.5139213   8.22e-05   52.3005288   0.0   0.0002618   52.4764909   0.0   
00121   52.9427163   0.0   0.0002649   53.044505   0.0   26.4898059   17.6598706   8.29e-05   52.7363666   0.0   0.000264   52.913795   0.0   
00122   53.3802594   0.0   0.0002671   53.4828894   0.0   26.70873   17.80582   8.36e-05   53.1722043   0.0   0.0002662   53.3510992   0.0   
00123   53.8178026   0.0   0.0002693   53.9212737   0.0   26.927654   17.9517693   8.43e-05   53.608042   0.0   0.0002684   53.7884032   0.0   
00124   54.2553457   0.0   0.0002714   54.3596581   0.0   27.146578   18.0977187   8.5e-05   54.0438797   0.0   0.0002706   54.2257073   0.0   
00125   54.6928888   0.0   0.0002736   54.7980424   0.0   27.365502   18.243668   8.56e-05   54.4797175   0.0   0.0002727   54.6630113   0.0   
00126   55.1304319   0.0   0.0002758   55.2364267   0.0   27.584426   18.3896173   8.63e-05   54.9155553   0.0   0.0002749   55.1003155   0.0   
00127   55.567975   0.0   0.000278   55.6748111   0.0   27.80335   18.5355667   8.7e-05   55.351393   0.0   0.0002771   55.5376196   0.0   
00128   56.0055181   0.0   0.0002802   56.1131954   0.0   28.0222741   18.681516   8.77e-05   55.7872307   0.0   0.0002793   55.9749237   0.0   
00129   56.4430612   0.0   0.0002824   56.5515798   0.0   28.241198   18.8274654   8.84e-05   56.2230684   0.0   0.0002815   56.4122278   0.0   
00130   56.8806043   0.0   0.0002846   56.9899641   0.0   28.4601221   18.9734147   8.91e-05   56.6589061   0.0   0.0002836   56.8495318   0.0   
00131   57.3181474   0.0   0.0002868   57.4283484   0.0   28.6790462   19.1193641   8.98e-05   57.0947439   0.0   0.0002858   57.2868359   0.0   
00132   57.7556905   0.0   0.000289   57.8667328   0.0   28.8979701   19.2653134   9.04e-05   57.5305816   0.0   0.000288   57.72414   0.0   
00133   58.1932337   0.0   0.0002912   58.3051171   0.0   29.1168942   19.4112628   9.11e-05   57.9664194   0.0   0.0002902   58.1614441   0.0   
00134   58.6307768   0.0   0.0002933   58.7435014   0.0   29.3358182   19.5572121   9.18e-05   58.4022572   0.0   0.0002924   58.5987482   0.0   
00135   59.0683199   0.0   0.0002955   59.1818858   0.0   29.5547422   19.7031614   9.25e-05   58.8380949   0.0   0.0002946   59.0360523   0.0   
00136   59.505863   0.0   0.0002977   59.6202701   0.0   29.7736662   19.8491108   9.32e-05   59.2739326   0.0   0.0002967   59.4733564   0.0   
00137   59.9434061   0.0   0.0002999   60.0586545   0.0   29.9925902   19.9950601   9.39e-05   59.7097703   0.0   0.0002989   59.9106605   0.0   
00138   60.3809492   0.0   0.0003021   60.4970388   0.0   30.2115143   20.1410095   9.46e-05   60.1456081   0.0   0.0003011   60.3479645   0.0   
00139   60.8184923   0.0   0.0003043   60.9354231   0.0   30.4304382   20.2869588   9.52e-05   60.5814459   0.0   0.0003033   60.7852686   0.0   
00140   61.2560354   0.0   0.0003065   61.3738075   0.0   30.6493622   20.4329082   9.59e-05   61.0172836   0.0   0.0003055   61.2225728   0.0   
00141   61.6935785   0.0   0.0003087   61.8121918   0.0   30.8682862   20.5788575   9.66e-05   61.4531213   0.0   0.0003076   61.6598768   0.0   
00142   62.1311216   0.0   0.0003109   62.2505762   0.0   31.0872104   20.7248069   9.73e-05   61.8889591   0.0   0.0003098   62.0971809   0.0   
00143   62.5686647   0.0   0.000313   62.6889605   0.0   31.3061343   20.8707562   9.8e-05   62.3247969   0.0   0.000312   62.534485   0.0   
00144   63.0062079   0.0   0.0003152   63.1273448   0.0   31.5250584   21.0167056   9.87e-05   62.7606346   0.0   0.0003142   62.9717891   0.0   
00145   63.443751   0.0   0.0003174   63.5657292   0.0   31.7439824   21.1626549   9.94e-05   63.1964723   0.0   0.0003164   63.4090932   0.0   
00146   63.8812941   0.0   0.0003196   64.0041135   0.0   31.9629064   21.3086043   0.0001   63.63231   0.0   0.0003186   63.8463973   0.0   
00147   64.3188372   0.0   0.0003218   64.4424979   0.0   32.1818304   21.4545536   0.0001007   64.0681478   0.0   0.0003207   64.2837013   0.0   
00148   64.7563803   0.0   0.000324   64.8808822   0.0   32.4007544   21.600503   0.0001014   64.5039855   0.0   0.0003229   64.7210055   0.0   
00149   65.1939234   0.0   0.0003262   65.3192665   0.0   32.6196784   21.7464523   0.0001021   64.9398232   0.0   0.0003251   65.1583096   0.0   
00150   65.6314665   0.0   0.0003284   65.7576509   0.0   32.8386024   21.8924016   0.0001028   65.375661   0.0   0.0003273   65.5956137   0.0   
00151   66.0690096   0.0   0.0003306   66.1960352   0.0   33.0575265   22.038351   0.0001035   65.8114987   0.0   0.0003295   66.0329177   0.0   
00152   66.5065528   0.0   0.0003327   66.6344195   0.0   33.2764505   22.1843003   0.0001041   66.2473364   0.0   0.0003316   66.4702219   0.0   
00153   66.9440959   0.0   0.0003349   67.0728039   0.0   33.4953745   22.3302497   0.0001048   66.6831742   0.0   0.0003338   66.9075259   0.0   
00154   67.3816389   0.0   0.0003371   67.5111882   0.0   33.7142985   22.476199   0.0001055   67.119012   0.0   0.000336   67.3448301   0.0   
00155   67.8191821   0.0   0.0003393   67.9495726   0.0   33.9332225   22.6221483   0.0001062   67.5548497   0.0   0.0003382   67.7821341   0.0   
00156   68.2567252   0.0   0.0003415   68.3879569   0.0   34.1521466   22.7680977   0.0001069   67.9906875   0.0   0.0003404   68.2194381   0.0   
00157   68.6942683   0.0   0.0003437   68.8263412   0.0   34.3710704   22.914047   0.0001076   68.4265251   0.0   0.0003426   68.6567423   0.0   
00158   69.1318114   0.0   0.0003459   69.2647256   0.0   34.5899946   23.0599964   0.0001083   68.8623628   0.0   0.0003447   69.0940464   0.0   
00159   69.5693545   0.0   0.0003481   69.7031099   0.0   34.8089185   23.2059457   0.0001089   69.2982005   0.0   0.0003469   69.5313505   0.0   
00160   70.0068976   0.0   0.0003503   70.1414943   0.0   35.0278426   23.3518951   0.0001096   69.7340383   0.0   0.0003491   69.9686546   0.0   
00161   70.4444407   0.0   0.0003524   70.5798786   0.0   35.2467666   23.4978444   0.0001103   70.1698761   0.0   0.0003513   70.4059588   0.0   
00162   70.8819838   0.0   0.0003546   71.0182629   0.0   35.4656907   23.6437938   0.000111   70.6057139   0.0   0.0003535   70.8432628   0.0   
00163   71.319527   0.0   0.0003568   71.4566473   0.0   35.6846147   23.7897431   0.0001117   71.0415515   0.0   0.0003556   71.2805668   0.0   
00164   71.7570701   0.0   0.000359   71.8950316   0.0   35.9035387   23.9356925   0.0001124   71.4773893   0.0   0.0003578   71.7178709   0.0   
00165   72.1946132   0.0   0.0003612   72.333416   0.0   36.1224627   24.0816418   0.0001131   71.913227   0.0   0.00036   72.155175   0.0   
00166   72.6321563   0.0   0.0003634   72.7718003   0.0   36.3413868   24.2275912   0.0001137   72.3490648   0.0   0.0003622   72.592479   0.0   
00167   73.0696994   0.0   0.0003656   73.2101846   0.0   36.5603108   24.3735405   0.0001144   72.7849026   0.0   0.0003644   73.0297833   0.0   
00168   73.5072425   0.0   0.0003678   73.648569   0.0   36.7792347   24.5194898   0.0001151   73.2207403   0.0   0.0003666   73.4670872   0.0   
00169   73.9447856   0.0   0.00037   74.0869533   0.0   36.9981588   24.6654392   0.0001158   73.6565781   0.0   0.0003687   73.9043913   0.0   
00170   74.3823287   0.0   0.0003721   74.5253376   0.0   37.2170828   24.8113885   0.0001165   74.0924156   0.0   0.0003709   74.3416956   0.0   
00171   74.8198718   0.0   0.0003743   74.963722   0.0   37.4360068   24.9573379   0.0001172   74.5282536   0.0   0.0003731   74.7789996   0.0   
00172   75.257415   0.0   0.0003765   75.4021063   0.0   37.6549307   25.1032872   0.0001179   74.9640914   0.0   0.0003753   75.2163036   0.0   
00173   75.6949581   0.0   0.0003787   75.8404907   0.0   37.8738548   25.2492366   0.0001185   75.3999291   0.0   0.0003775   75.6536077   0.0   
00174   76.1325012   0.0   0.0003809   76.278875   0.0   38.0927789   25.3951859   0.0001192   75.8357667   0.0   0.0003797   76.0909118   0.0   
00175   76.5700443   0.0   0.0003831   76.7172594   0.0   38.3117028   25.5411352   0.0001199   76.2716044   0.0   0.0003818   76.5282159   0.0   
00176   77.0075874   0.0   0.0003853   77.1556437   0.0   38.5306268   25.6870845   0.0001206   76.7074423   0.0   0.000384   76.96552   0.0   
00177   77.4451305   0.0   0.0003875   77.5940281   0.0   38.7495508   25.8330339   0.0001213   77.1432799   0.0   0.0003862   77.4028242   0.0   
00178   77.8826736   0.0   0.0003897   78.0324124   0.0   38.9684749   25.9789833   0.000122   77.5791177   0.0   0.0003884   77.8401281   0.0   
00179   78.3202167   0.0   0.0003919   78.4707967   0.0   39.1873989   26.1249326   0.0001226   78.0149555   0.0   0.0003906   78.2774323   0.0   
00180   78.7577599   0.0   0.000394   78.9091811   0.0   39.4063229   26.2708819   0.0001233   78.4507932   0.0   0.0003927   78.7147364   0.0   
00181   79.1953029   0.0   0.0003962   79.3475654   0.0   39.6252469   26.4168313   0.000124   78.8866308   0.0   0.0003949   79.1520405   0.0   
00182   79.6328461   0.0   0.0003984   79.7859497   0.0   39.8441709   26.5627806   0.0001247   79.3224686   0.0   0.0003971   79.5893446   0.0   
00183   80.0703891   0.0   0.0004006   80.2243341   0.0   40.0630949   26.7087299   0.0001254   79.7583065   0.0   0.0003993   80.0266486   0.0   
00184   80.5079323   0.0   0.0004028   80.6627184   0.0   40.282019   26.8546794   0.0001261   80.1941441   0.0   0.0004015   80.4639528   0.0   
00185   80.9454754   0.0   0.000405   81.1011028   0.0   40.500943   27.0006287   0.0001268   80.6299819   0.0   0.0004037   80.9012567   0.0   
00186   81.3830185   0.0   0.0004072   81.5394871   0.0   40.719867   27.146578   0.0001274   81.0658196   0.0   0.0004058   81.3385608   0.0   
00187   81.8205616   0.0   0.0004094   81.9778714   0.0   40.938791   27.2925273   0.0001281   81.5016574   0.0   0.000408   81.7758649   0.0   
00188   82.2581047   0.0   0.0004116   82.4162557   0.0   41.1577151   27.4384767   0.0001288   81.937495   0.0   0.0004102   82.2131691   0.0   
00189   82.6956478   0.0   0.0004137   82.8546401   0.0   41.3766391   27.584426   0.0001295   82.3733328   0.0   0.0004124   82.6504733   0.0   
00190   83.1331909   0.0   0.0004159   83.2930244   0.0   41.595563   27.7303754   0.0001302   82.8091706   0.0   0.0004146   83.0877774   0.0   
00191   83.570734   0.0   0.0004181   83.7314088   0.0   41.8144871   27.8763247   0.0001309   83.2450083   0.0   0.0004167   83.5250814   0.0   
00192   84.0082771   0.0   0.0004203   84.1697931   0.0   42.0334111   28.0222741   0.0001316   83.6808462   0.0   0.0004189   83.9623857   0.0   
00193   84.4458202   0.0   0.0004225   84.6081774   0.0   42.2523351   28.1682234   0.0001322   84.1166838   0.0   0.0004211   84.3996896   0.0   
00194   84.8833634   0.0   0.0004247   85.0465618   0.0   42.4712591   28.3141728   0.0001329   84.5525217   0.0   0.0004233   84.8369937   0.0   
00195   85.3209065   0.0   0.0004269   85.4849461   0.0   42.6901832   28.4601221   0.0001336   84.9883593   0.0   0.0004255   85.2742977   0.0   
00196   85.7584496   0.0   0.0004291   85.9233305   0.0   42.9091072   28.6060715   0.0001343   85.424197   0.0   0.0004277   85.7116019   0.0   
00197   86.1959927   0.0   0.0004313   86.3617148   0.0   43.1280313   28.7520209   0.000135   85.8600347   0.0   0.0004298   86.148906   0.0   
00198   86.6335358   0.0   0.0004334   86.8000991   0.0   43.3469552   28.8979701   0.0001357   86.2958725   0.0   0.000432   86.5862101   0.0   
00199   87.0710789   0.0   0.0004356   87.2384835   0.0   43.5658792   29.0439195   0.0001364   86.73171   0.0   0.0004342   87.0235141   0.0   
00200   87.508622   0.0   0.0004378   87.6768678   0.0   43.7848033   29.1898689   0.000137   87.1675479   0.0   0.0004364   87.4608183   0.0   
00201   87.9461651   0.0   0.00044   88.1152522   0.0   44.0037273   29.3358182   0.0001377   87.6033857   0.0   0.0004386   87.8981223   0.0   
00202   88.3837082   0.0   0.0004422   88.5536365   0.0   44.2226513   29.4817675   0.0001384   88.0392235   0.0   0.0004407   88.3354266   0.0   
00203   88.8212514   0.0   0.0004444   88.9920208   0.0   44.4415753   29.6277168   0.0001391   88.4750612   0.0   0.0004429   88.7727305   0.0   
00204   89.2587945   0.0   0.0004466   89.4304052   0.0   44.6604993   29.7736662   0.0001398   88.9108988   0.0   0.0004451   89.2100346   0.0   
00205   89.6963376   0.0   0.0004488   89.8687895   0.0   44.8794233   29.9196155   0.0001405   89.3467366   0.0   0.0004473   89.6473386   0.0   
00206   90.1338807   0.0   0.000451   90.3071739   0.0   45.0983474   30.0655649   0.0001411   89.7825743   0.0   0.0004495   90.0846429   0.0   
00207   90.5714238   0.0   0.0004531   90.7455582   0.0   45.3172714   30.2115143   0.0001418   90.218412   0.0   0.0004517   90.5219469   0.0   
00208   91.0089669   0.0   0.0004553   91.1839425   0.0   45.5361955   30.3574637   0.0001425   90.6542498   0.0   0.0004538   90.9592509   0.0   
00209   91.44651   0.0   0.0004575   91.6223269   0.0   45.7551194   30.5034129   0.0001432   91.0900876   0.0   0.000456   91.396555   0.0   
00210   91.8840531   0.0   0.0004597   92.0607112   0.0   45.9740434   30.6493623   0.0001439   91.5259254   0.0   0.0004582   91.8338592   0.0   
00211   92.3215962   0.0   0.0004619   92.4990956   0.0   46.1929675   30.7953117   0.0001446   91.9617632   0.0   0.0004604   92.2711632   0.0   
00212   92.7591393   0.0   0.0004641   92.9374799   0.0   46.4118913   30.9412609   0.0001453   92.3976009   0.0   0.0004626   92.7084673   0.0   
00213   93.1966825   0.0   0.0004663   93.3758643   0.0   46.6308155   31.0872103   0.0001459   92.8334385   0.0   0.0004647   93.1457714   0.0   
00214   93.6342255   0.0   0.0004685   93.8142486   0.0   46.8497395   31.2331596   0.0001466   93.2692763   0.0   0.0004669   93.5830755   0.0   
00215   94.0717687   0.0   0.0004707   94.2526329   0.0   47.0686634   31.3791089   0.0001473   93.7051141   0.0   0.0004691   94.0203795   0.0   
00216   94.5093118   0.0   0.0004728   94.6910172   0.0   47.2875875   31.5250583   0.000148   94.1409519   0.0   0.0004713   94.4576837   0.0   
00217   94.9468549   0.0   0.000475   95.1294016   0.0   47.5065116   31.6710077   0.0001487   94.5767896   0.0   0.0004735   94.8949878   0.0   
00218   95.384398   0.0   0.0004772   95.5677859   0.0   47.7254354   31.8169569   0.0001494   95.0126272   0.0   0.0004757   95.3322918   0.0   
00219   95.8219411   0.0   0.0004794   96.0061703   0.0   47.9443595   31.9629063   0.0001501   95.448465   0.0   0.0004778   95.769596   0.0   
00220   96.2594842   0.0   0.0004816   96.4445546   0.0   48.1632835   32.1088557   0.0001507   95.8843028   0.0   0.00048   96.2068999   0.0   
00221   96.6970273   0.0   0.0004838   96.8829389   0.0   48.3822077   32.2548051   0.0001514   96.3201405   0.0   0.0004822   96.6442042   0.0   
00222   97.1345705   0.0   0.000486   97.3213233   0.0   48.6011317   32.4007544   0.0001521   96.7559782   0.0   0.0004844   97.0815082   0.0   
00223   97.5721136   0.0   0.0004882   97.7597076   0.0   48.8200557   32.5467038   0.0001528   97.1918159   0.0   0.0004866   97.5188124   0.0   
00224   98.0096567   0.0   0.0004904   98.198092   0.0   49.0389796   32.6926531   0.0001535   97.6276538   0.0   0.0004887   97.9561164   0.0   
00225   98.4471998   0.0   0.0004925   98.6364763   0.0   49.2579037   32.8386024   0.0001542   98.0634916   0.0   0.0004909   98.3934205   0.0   
00226   98.8847429   0.0   0.0004947   99.0748606   0.0   49.4768276   32.9845517   0.0001548   98.4993293   0.0   0.0004931   98.8307245   0.0   
00227   99.322286   0.0   0.0004969   99.513245   0.0   49.6957516   33.1305011   0.0001555   98.9351669   0.0   0.0004953   99.2680286   0.0   
00228   99.7598291   0.0   0.0004991   99.9516293   0.0   49.9146757   33.2764505   0.0001562   99.3710045   0.0   0.0004975   99.7053326   0.0   
00229   100.1973722   0.0   0.0005013   100.3900137   0.0   50.1335997   33.4223998   0.0001569   99.8068425   0.0   0.0004997   100.1426369   0.0   
00230   100.6349153   0.0   0.0005035   100.828398   0.0   50.3525238   33.5683492   0.0001576   100.2426802   0.0   0.0005018   100.579941   0.0   
00231   101.0724584   0.0   0.0005057   101.2667824   0.0   50.5714477   33.7142985   0.0001583   100.678518   0.0   0.000504   101.017245   0.0   
00232   101.5100015   0.0   0.0005079   101.7051667   0.0   50.7903718   33.8602479   0.000159   101.1143557   0.0   0.0005062   101.4545491   0.0   
00233   101.9475447   0.0   0.0005101   102.143551   0.0   51.0092957   34.0061971   0.0001596   101.5501934   0.0   0.0005084   101.8918533   0.0   
00234   102.3850878   0.0   0.0005123   102.5819353   0.0   51.2282199   34.1521466   0.0001603   101.9860311   0.0   0.0005106   102.3291573   0.0   
00235   102.8226309   0.0   0.0005144   103.0203197   0.0   51.4471438   34.2980958   0.000161   102.4218689   0.0   0.0005127   102.7664615   0.0   
00236   103.260174   0.0   0.0005166   103.458704   0.0   51.6660678   34.4440452   0.0001617   102.8577067   0.0   0.0005149   103.2037656   0.0   
00237   103.6977171   0.0   0.0005188   103.8970884   0.0   51.8849918   34.5899945   0.0001624   103.2935445   0.0   0.0005171   103.6410696   0.0   
00238   104.1352602   0.0   0.000521   104.3354727   0.0   52.1039159   34.7359439   0.0001631   103.729382   0.0   0.0005193   104.0783737   0.0   
00239   104.5728033   0.0   0.0005232   104.773857   0.0   52.3228399   34.8818933   0.0001638   104.1652199   0.0   0.0005215   104.5156777   0.0   
00240   105.0103464   0.0   0.0005254   105.2122414   0.0   52.5417638   35.0278425   0.0001644   104.6010575   0.0   0.0005237   104.9529817   0.0   
00241   105.4478895   0.0   0.0005276   105.6506257   0.0   52.7606879   35.173792   0.0001651   105.0368953   0.0   0.0005258   105.3902858   0.0   
00242   105.8854327   0.0   0.0005298   106.0890101   0.0   52.9796118   35.3197412   0.0001658   105.4727332   0.0   0.000528   105.8275901   0.0   
00243   106.3229758   0.0   0.000532   106.5273944   0.0   53.198536   35.4656907   0.0001665   105.9085708   0.0   0.0005302   106.2648942   0.0   
00244   106.7605189   0.0   0.0005341   106.9657788   0.0   53.41746   35.61164   0.0001672   106.3444085   0.0   0.0005324   106.7021984   0.0   
00245   107.198062   0.0   0.0005363   107.4041631   0.0   53.636384   35.7575893   0.0001679   106.7802462   0.0   0.0005346   107.1395023   0.0   
00246   107.6356051   0.0   0.0005385   107.8425474   0.0   53.8553079   35.9035386   0.0001686   107.216084   0.0   0.0005367   107.5768064   0.0   
00247   108.0731482   0.0   0.0005407   108.2809318   0.0   54.0742319   36.0494879   0.0001692   107.6519217   0.0   0.0005389   108.0141105   0.0   
00248   108.5106913   0.0   0.0005429   108.7193161   0.0   54.293156   36.1954373   0.0001699   108.0877594   0.0   0.0005411   108.4514147   0.0   
00249   108.9482344   0.0   0.0005451   109.1577005   0.0   54.5120801   36.3413867   0.0001706   108.5235972   0.0   0.0005433   108.8887187   0.0   
00250   109.3857775   0.0   0.0005473   109.5960848   0.0   54.731004   36.487336   0.0001713   108.9594349   0.0   0.0005455   109.3260226   0.0   
00251   109.8233206   0.0   0.0005495   110.0344691   0.0   54.949928   36.6332854   0.000172   109.3952727   0.0   0.0005477   109.7633268   0.0   
00252   110.2608638   0.0   0.0005517   110.4728535   0.0   55.168852   36.7792347   0.0001727   109.8311105   0.0   0.0005498   110.200631   0.0   
00253   110.6984069   0.0   0.0005538   110.9112378   0.0   55.3877763   36.9251842   0.0001733   110.2669482   0.0   0.000552   110.637935   0.0   
00254   111.13595   0.0   0.000556   111.3496221   0.0   55.6067   37.0711333   0.000174   110.7027859   0.0   0.0005542   111.0752392   0.0   
00255   111.5734931   0.0   0.0005582   111.7880065   0.0   55.8256242   37.2170828   0.0001747   111.1386237   0.0   0.0005564   111.5125433   0.0   
00256   112.0110362   0.0   0.0005604   112.2263908   0.0   56.0445481   37.3630321   0.0001754   111.5744615   0.0   0.0005586   111.9498473   0.0   
00257   112.4485793   0.0   0.0005626   112.6647752   0.0   56.2634721   37.5089814   0.0001761   112.0102992   0.0   0.0005607   112.3871515   0.0   
00258   112.8861224   0.0   0.0005648   113.1031595   0.0   56.4823961   37.6549307   0.0001768   112.4461369   0.0   0.0005629   112.8244555   0.0   
00259   113.3236655   0.0   0.000567   113.5415438   0.0   56.7013204   37.8008803   0.0001775   112.8819745   0.0   0.0005651   113.2617595   0.0   
00260   113.7612086   0.0   0.0005692   113.9799282   0.0   56.9202442   37.9468294   0.0001781   113.3178123   0.0   0.0005673   113.6990637   0.0   
00261   114.1987518   0.0   0.0005714   114.4183125   0.0   57.1391682   38.0927788   0.0001788   113.75365   0.0   0.0005695   114.1363678   0.0   
00262   114.6362949   0.0   0.0005735   114.8566969   0.0   57.3580923   38.2387282   0.0001795   114.1894879   0.0   0.0005717   114.5736719   0.0   
00263   115.073838   0.0   0.0005757   115.2950812   0.0   57.5770163   38.3846776   0.0001802   114.6253256   0.0   0.0005738   115.0109759   0.0   
00264   115.4818451   0.0   0.0005778   115.6987188   0.0   57.7788066   38.5192044   0.0001808   115.0475795   0.0   0.0005759   115.4286644   0.0   
00265   115.8636448   0.0   0.0005797   116.0728817   0.0   57.9654779   38.6436519   0.0001814   115.4582073   0.0   0.000578   115.8303453   0.0   
00266   116.3011869   0.0   0.0005819   116.5112661   0.0   58.184402   38.7896014   0.0001821   115.8940445   0.0   0.0005802   116.2676494   0.0   
00267   116.6541094   0.0   0.0005836   116.8528401   0.0   58.3548467   38.9032311   0.0001826   116.2933109   0.0   0.0005821   116.6548551   0.0   
00268   117.0916493   0.0   0.0005858   117.2912244   0.0   58.5737707   39.0491804   0.0001833   116.7291471   0.0   0.0005843   117.0921593   0.0   
00269   117.5266321   0.0   0.000588   117.7269059   0.0   58.7913007   39.1942004   0.000184   117.1636499   0.0   0.0005865   117.5277874   0.0   
00270   117.8242207   0.0   0.0005894   118.0075523   0.0   58.931177   39.2874513   0.0001845   117.5285874   0.0   0.0005883   117.8691729   0.0   
00271   118.2607732   0.0   0.0005916   118.4449137   0.0   59.1495988   39.4330659   0.0001851   117.9638032   0.0   0.0005904   118.3057527   0.0   
00272   118.6983105   0.0   0.0005938   118.883298   0.0   59.3685228   39.5790152   0.0001858   118.3996398   0.0   0.0005926   118.7430568   0.0   
00273   119.1358477   0.0   0.000596   119.3216824   0.0   59.5874467   39.7249645   0.0001865   118.8354762   0.0   0.0005948   119.1803609   0.0   
00274   119.5728639   0.0   0.0005982   119.7594735   0.0   59.8060568   39.8707045   0.0001872   119.2710092   0.0   0.000597   119.6172524   0.0   
00275   120.0104012   0.0   0.0006004   120.1978579   0.0   60.0249809   40.016654   0.0001879   119.7068459   0.0   0.0005992   120.0545566   0.0   
00276   120.4479385   0.0   0.0006026   120.6362422   0.0   60.2439049   40.1626033   0.0001886   120.1426823   0.0   0.0006014   120.4918607   0.0   
00277   120.7949062   0.0   0.0006043   120.973775   0.0   60.412748   40.2751653   0.0001891   120.5367533   0.0   0.0006033   120.8735644   0.0   
00278   121.2318021   0.0   0.0006065   121.4114335   0.0   60.6313322   40.4208881   0.0001898   120.9722166   0.0   0.0006055   121.3103594   0.0   
00279   121.669337   0.0   0.0006087   121.8498178   0.0   60.8502561   40.5668374   0.0001905   121.4080529   0.0   0.0006077   121.7476636   0.0   
00280   122.0981181   0.0   0.0006108   122.2784031   0.0   61.0647505   40.7098337   0.0001911   121.8400879   0.0   0.0006098   122.1800178   0.0   
00281   122.5356528   0.0   0.000613   122.7167874   0.0   61.2836746   40.8557831   0.0001918   122.2759241   0.0   0.000612   122.6173219   0.0   
00282   122.8683864   0.0   0.0006146   123.0408259   0.0   61.445568   40.963712   0.0001923   122.6681746   0.0   0.0006139   122.9985523   0.0   
00283   123.2990533   0.0   0.0006168   123.4718369   0.0   61.6606414   41.1070943   0.000193   123.0997482   0.0   0.0006161   123.4306448   0.0   
00284   123.736583   0.0   0.000619   123.9102212   0.0   61.8795653   41.2530436   0.0001937   123.5355827   0.0   0.0006183   123.867949   0.0   
00285   124.1674254   0.0   0.0006211   124.3417774   0.0   62.0951327   41.3967551   0.0001944   123.9681706   0.0   0.0006205   124.3013146   0.0   
00286   124.5980688   0.0   0.0006233   124.7725242   0.0   62.3102344   41.5401563   0.000195   124.4010724   0.0   0.0006226   124.7348998   0.0   
00287   125.035021   0.0   0.0006255   125.2102861   0.0   62.5288181   41.6858787   0.0001957   124.8366118   0.0   0.0006248   125.1718347   0.0   
00288   125.2384155   0.0   0.0006265   125.3960253   0.0   62.6218477   41.7478984   0.000196   125.1599866   0.0   0.0006264   125.4679089   0.0   
00289   125.6749058   0.0   0.0006287   125.8333069   0.0   62.8402348   41.8934899   0.0001967   125.5952913   0.0   0.0006285   125.9045532   0.0   
00290   126.1124278   0.0   0.0006308   126.2716913   0.0   63.0591588   42.0394392   0.0001974   126.0311243   0.0   0.0006307   126.3418573   0.0   
00291   125.9147728   1.9e-06   0.0006317   126.0534471   1.9e-06   62.9520795   41.968053   0.0001971   126.2243909   0.0   0.0006316   126.5078642   0.0   
00292   126.3522476   1.9e-06   0.0006339   126.4918314   1.9e-06   63.1710036   42.1140024   0.0001977   126.6602017   0.0   0.0006338   126.9451683   0.0   
00293   126.7805927   1.9e-06   0.000636   126.9214651   1.9e-06   63.3857604   42.2571736   0.0001984   127.0919167   0.0   0.0006359   127.377687   0.0   
00294   127.2046957   1.9e-06   0.0006381   127.3457134   1.9e-06   63.5976668   42.3984446   0.0001991   127.5194902   0.0   0.0006381   127.8052626   0.0   
00295   127.6372665   1.9e-06   0.0006403   127.7789847   1.9e-06   63.8140025   42.5426683   0.0001998   127.9527366   0.0   0.0006402   128.2394962   0.0   
00296   128.0201852   2e-06   0.0006423   128.160891   2e-06   64.0049659   42.6699773   0.0002004   128.3593446   0.0   0.0006423   128.6427346   0.0   
00297   128.4263007   2.1e-06   0.0006444   128.5675827   2.1e-06   64.2080336   42.8053558   0.000201   128.7799358   0.0   0.0006444   129.0626029   0.0   
00298   113.2315713   9.28e-05   0.0006587   113.3569496   9.25e-05   56.6113821   37.7409214   0.0001772   113.4960539   9.97e-05   0.0006671   113.6980967   9.94e-05   
00299   113.6688984   9.28e-05   0.0006609   113.7953339   9.25e-05   56.8303062   37.8868708   0.0001779   113.9316948   9.97e-05   0.0006693   114.1354007   9.94e-05   
00300   114.0895106   9.29e-05   0.0006631   114.2176562   9.26e-05   57.0410528   38.0273686   0.0001786   114.3720101   9.97e-05   0.0006715   114.5779089   9.94e-05   
00301   114.5268436   9.29e-05   0.0006653   114.6560405   9.26e-05   57.2599767   38.1733178   0.0001792   114.8076566   9.97e-05   0.0006737   115.015213   9.94e-05   
00302   114.9589735   9.29e-05   0.0006675   115.0895748   9.26e-05   57.4764962   38.3176641   0.0001799   115.2129063   9.99e-05   0.0006758   115.4179819   9.96e-05   
00303   115.3833092   9.3e-05   0.0006697   115.5160009   9.27e-05   57.6894482   38.4596321   0.0001806   115.6502622   9.99e-05   0.000678   115.8607997   9.96e-05   
00304   115.8044775   9.31e-05   0.0006719   115.9386346   9.28e-05   57.900503   38.6003353   0.0001813   116.090863   9.99e-05   0.0006802   116.3035588   9.96e-05   
00305   116.1904842   9.34e-05   0.0006742   116.3283352   9.31e-05   58.0950776   38.7300518   0.0001819   116.3654464   0.0001008   0.0006825   116.5775756   0.0001005   
00306   116.6146893   9.35e-05   0.0006764   116.7538464   9.32e-05   58.3075643   38.8717095   0.0001825   116.8028904   0.0001008   0.0006847   117.0174255   0.0001005   
00307   117.0490576   9.35e-05   0.0006786   117.1895804   9.32e-05   58.5251342   39.0167562   0.0001832   117.2383069   0.0001008   0.0006869   117.45474   0.0001005   
00308   117.4864219   9.35e-05   0.0006808   117.6279647   9.32e-05   58.7440584   39.1627056   0.0001839   117.673999   0.0001008   0.0006891   117.892044   0.0001005   
00309   117.898296   9.37e-05   0.000683   118.042241   9.34e-05   58.951096   39.3007307   0.0001845   118.1158141   0.0001008   0.0006913   118.3365485   0.0001005   
00310   118.3356675   9.37e-05   0.0006852   118.4806253   9.34e-05   59.1700199   39.4466799   0.0001852   118.5515104   0.0001008   0.0006935   118.7738527   0.0001005   
00311   118.7684661   9.37e-05   0.0006874   118.9144603   9.34e-05   59.3867294   39.5911529   0.0001859   118.9441718   0.000101   0.0006957   119.1764849   0.0001007   
00312   119.0583946   9.47e-05   0.0006898   119.2058097   9.44e-05   59.5324487   39.6882991   0.0001864   119.3623644   0.0001014   0.0006981   119.585418   0.0001011   
00313   119.4754953   9.48e-05   0.000692   119.6239124   9.45e-05   59.7412587   39.8275058   0.000187   119.517796   0.0001028   0.0007004   119.7510988   0.0001025   
00314   119.9128811   9.48e-05   0.0006942   120.0622967   9.45e-05   59.9601828   39.9734552   0.0001877   119.9535168   0.0001028   0.0007025   120.1884029   0.0001025   
00315   120.3357187   9.49e-05   0.0006964   120.4869536   9.46e-05   60.172161   40.114774   0.0001884   120.3928945   0.0001028   0.0007047   120.629808   0.0001025   
00316   120.7731095   9.49e-05   0.0006986   120.9253379   9.46e-05   60.3910852   40.2607235   0.000189   120.8286183   0.0001028   0.0007069   121.067112   0.0001025   
00317   121.2075548   9.49e-05   0.0007008   121.3606013   9.46e-05   60.6084817   40.4056545   0.0001897   121.2657196   0.0001028   0.0007091   121.5056924   0.0001025   
00318   121.626634   9.5e-05   0.000703   121.7813198   9.47e-05   60.8186067   40.5457378   0.0001904   121.706198   0.0001028   0.0007113   121.9483475   0.0001025   
00319   122.047774   9.51e-05   0.0007053   122.2037449   9.48e-05   61.0294644   40.6863096   0.000191   122.1465072   0.0001028   0.0007135   122.3909068   0.0001025   
00320   122.485172   9.51e-05   0.0007075   122.6421292   9.48e-05   61.2483881   40.8322588   0.0001917   122.5822359   0.0001028   0.0007157   122.8282109   0.0001025   
00321   122.9119005   9.52e-05   0.0007097   123.0699335   9.49e-05   61.4619258   40.9746172   0.0001924   123.0212256   0.0001028   0.0007179   123.2672211   0.0001025   
00322   123.3468519   9.52e-05   0.0007118   123.5051819   9.49e-05   61.6792877   41.1195251   0.0001931   123.457318   0.0001028   0.0007201   123.7019258   0.0001025   
00323   123.7730647   9.53e-05   0.000714   123.9326183   9.5e-05   61.8927466   41.2618311   0.0001937   123.8925932   0.0001028   0.0007223   124.1389715   0.0001025   
00324   124.2071321   9.53e-05   0.0007162   124.3672993   9.5e-05   62.109825   41.40655   0.0001944   124.3263665   0.0001028   0.0007244   124.5737657   0.0001025   
00325   124.6438715   9.53e-05   0.0007184   124.8050463   9.5e-05   62.3284265   41.5522843   0.0001951   124.7622749   0.0001028   0.0007266   125.0112561   0.0001025   
00326   125.0737986   9.53e-05   0.0007206   125.2358676   9.5e-05   62.5435935   41.695729   0.0001958   125.1964959   0.0001028   0.0007288   125.4469793   0.0001025   
00327   125.5078923   9.53e-05   0.0007228   125.6709855   9.5e-05   62.760861   41.840574   0.0001965   125.6312673   0.0001028   0.000731   125.8833143   0.0001025   
00328   125.9398276   9.53e-05   0.0007249   126.1033529   9.5e-05   62.9768062   41.9845375   0.0001971   126.0670099   0.0001028   0.0007332   126.3202748   0.0001025   
00329   113.1044121   0.0001823   0.0007475   113.216936   0.0001819   56.5398651   37.6932434   0.000177   113.5821269   0.0001883   0.000756   113.8148594   0.0001879   
00330   113.5212552   0.0001824   0.0007497   113.6360753   0.000182   56.7492401   37.8328267   0.0001777   114.0229146   0.0001883   0.0007582   114.258564   0.0001879   
00331   113.9578574   0.0001824   0.0007519   114.0737839   0.000182   56.9678285   37.9785524   0.0001783   114.4591473   0.0001883   0.0007604   114.695543   0.0001879   
00332   114.3951751   0.0001824   0.0007541   114.5121682   0.000182   57.1867526   38.1245017   0.000179   114.8948125   0.0001883   0.0007626   115.132847   0.0001879   
00333   114.8104045   0.0001826   0.0007563   114.9294782   0.0001822   57.3952034   38.263469   0.0001797   115.3360236   0.0001883   0.0007648   115.5779449   0.0001879   
00334   115.2477294   0.0001826   0.0007585   115.3678626   0.0001822   57.6141274   38.4094183   0.0001804   115.7716923   0.0001883   0.000767   116.0152491   0.0001879   
00335   115.6810753   0.0001826   0.0007607   115.8023911   0.0001822   57.8311452   38.5540968   0.000181   116.2096223   0.0001883   0.0007692   116.4520512   0.0001879   
00336   116.1173716   0.0001826   0.0007628   116.2398231   0.0001822   58.0495975   38.6997316   0.0001817   116.6037424   0.0001885   0.0007714   116.8549998   0.000188   
00337   116.5537898   0.0001826   0.000765   116.6773522   0.0001822   58.2681011   38.8454008   0.0001824   117.0396868   0.0001885   0.0007736   117.2925722   0.000188   
00338   116.9140553   0.0001831   0.0007673   117.0414058   0.0001827   58.4498027   38.9665352   0.000183   117.4964051   0.0001885   0.0007758   117.7523447   0.000188   
00339   117.3513983   0.0001831   0.0007695   117.4797901   0.0001827   58.6687269   39.1124846   0.0001837   117.9320811   0.0001885   0.000778   118.1896487   0.000188   
00340   117.7826608   0.0001831   0.0007717   117.9124031   0.0001827   58.8847704   39.2565136   0.0001843   118.3662785   0.0001885   0.0007802   118.6197222   0.0001881   
00341   118.1186884   0.0001838   0.0007741   118.2517921   0.0001834   59.0542402   39.3694935   0.0001849   118.2527596   0.0001914   0.0007826   118.5220723   0.0001909   
00342   118.5560472   0.0001838   0.0007763   118.6901764   0.0001834   59.2731641   39.5154427   0.0001855   118.6884571   0.0001914   0.0007847   118.9593762   0.0001909   
00343   118.9832681   0.0001838   0.0007785   119.1185826   0.0001834   59.4870939   39.6580626   0.0001862   119.1245633   0.0001914   0.0007869   119.3921243   0.000191   
00344   119.2230877   0.0001851   0.0007809   119.3606049   0.0001847   59.607782   39.7385213   0.0001866   119.4446353   0.0001923   0.0007894   119.7221751   0.0001918   
00345   119.660457   0.0001851   0.0007831   119.7989893   0.0001847   59.8267059   39.8844706   0.0001873   119.8803448   0.0001923   0.0007916   120.1594793   0.0001918   
00346   120.0978275   0.0001851   0.0007853   120.2373736   0.0001847   60.0456298   40.0304199   0.000188   120.3160553   0.0001923   0.0007938   120.5967834   0.0001918   
00347   120.5342948   0.0001851   0.0007875   120.6748718   0.0001847   60.264117   40.176078   0.0001887   120.7519448   0.0001923   0.000796   121.0344444   0.0001918   
00348   120.9599323   0.0001852   0.0007897   121.101469   0.0001848   60.4770752   40.3180501   0.0001893   121.1914899   0.0001923   0.0007982   121.4755054   0.0001918   
00349   121.3939813   0.0001852   0.0007919   121.5367054   0.0001848   60.6944144   40.4629429   0.00019   121.6280703   0.0001923   0.0008004   121.913771   0.0001918   
00350   121.8305314   0.0001852   0.0007941   121.974316   0.0001848   60.9129533   40.6086355   0.0001907   122.0640153   0.0001923   0.0008025   122.3513184   0.0001918   
00351   122.2478971   0.0001854   0.0007963   122.3928483   0.000185   61.1219743   40.7479829   0.0001913   122.5052998   0.0001923   0.0008047   122.7944254   0.0001918   
00352   122.6814201   0.0001854   0.0007985   122.8273199   0.000185   61.3389459   40.8926306   0.000192   122.9421955   0.0001923   0.0008069   123.2329593   0.0001918   
00353   123.1119836   0.0001854   0.0008007   123.2590079   0.000185   61.554579   41.036386   0.0001927   123.3800959   0.0001923   0.0008091   123.6717355   0.0001918   
00354   123.5192298   0.0001855   0.0008029   123.6657937   0.0001851   61.7575961   41.1717308   0.0001933   123.8122118   0.0001923   0.0008113   124.10347   0.0001918   
00355   123.9559241   0.0001856   0.0008051   124.1034817   0.0001851   61.9761676   41.3174451   0.000194   124.2481472   0.0001923   0.0008135   124.5409961   0.0001918   
00356   124.3905705   0.0001856   0.0008072   124.5391726   0.0001851   62.1937516   41.462501   0.0001947   124.6846841   0.0001923   0.0008157   124.9791364   0.0001918   
00357   124.8243942   0.0001856   0.0008094   124.9738972   0.0001852   62.4107924   41.6071949   0.0001954   125.1197893   0.0001923   0.0008178   125.4156105   0.0001918   
00358   112.1552625   0.0002715   0.0008317   112.2539176   0.0002709   56.057754   37.371836   0.0001755   112.249217   0.0002795   0.0008403   112.4563108   0.0002789   
00359   112.5925308   0.0002715   0.0008339   112.6923019   0.0002709   56.2766782   37.5177855   0.0001762   112.6848344   0.0002795   0.0008425   112.8936147   0.0002789   
00360   113.0298013   0.0002715   0.000836   113.1306863   0.0002709   56.4956023   37.6637349   0.0001769   113.1204537   0.0002795   0.0008447   113.3309189   0.0002789   
00361   113.4661494   0.0002715   0.0008382   113.5681968   0.0002709   56.7140859   37.8093906   0.0001775   113.5563494   0.0002795   0.0008468   113.7684844   0.0002789   
00362   113.9034243   0.0002715   0.0008404   114.0065811   0.0002709   56.9330098   37.9553399   0.0001782   113.9919719   0.0002795   0.000849   114.2057885   0.0002789   
00363   114.3349176   0.0002715   0.0008426   114.4396719   0.000271   57.1492907   38.0995272   0.0001789   114.4291694   0.0002795   0.0008512   114.6447384   0.0002789   
00364   114.7122278   0.0002719   0.0008449   114.8206401   0.0002713   57.3395366   38.2263578   0.0001795   114.8811667   0.0002795   0.0008535   115.09994   0.0002789   
00365   115.1485843   0.0002719   0.0008471   115.2581479   0.0002713   57.5580222   38.3720148   0.0001802   115.3170624   0.0002795   0.0008557   115.53751   0.0002789   
00366   115.5791454   0.0002719   0.0008493   115.6901465   0.0002714   57.7737517   38.5158344   0.0001809   115.7546248   0.0002795   0.0008579   115.9767275   0.0002789   
00367   116.0164441   0.0002719   0.0008515   116.1285308   0.0002714   57.9926758   38.6617838   0.0001815   116.1902608   0.0002795   0.00086   116.4140317   0.0002789   
00368   116.4526106   0.0002719   0.0008537   116.5658395   0.0002714   58.2110671   38.8073781   0.0001822   116.6262436   0.0002795   0.0008622   116.8516587   0.0002789   
00369   116.8884454   0.0002719   0.0008559   117.0028271   0.0002714   58.4292962   38.9528642   0.0001829   117.0622405   0.0002795   0.0008644   117.2894508   0.0002789   
00370   117.3257501   0.0002719   0.0008581   117.4412114   0.0002714   58.6482201   39.0988134   0.0001836   117.497881   0.0002795   0.0008666   117.7267548   0.0002789   
00371   117.759092   0.000272   0.0008602   117.8757457   0.0002714   58.8652135   39.2434757   0.0001843   117.9347267   0.0002795   0.0008688   118.1652616   0.0002789   
00372   117.9904195   0.0002733   0.0008627   118.1112321   0.0002727   58.9828211   39.3218807   0.0001846   118.1329429   0.0002809   0.0008713   118.3751075   0.0002803   
00373   118.4277426   0.0002733   0.0008649   118.5496164   0.0002727   59.201745   39.46783   0.0001853   118.5686043   0.0002809   0.0008735   118.8124116   0.0002803   
00374   118.8632836   0.0002733   0.0008671   118.9862974   0.0002728   59.4198189   39.6132126   0.000186   118.9688469   0.0002811   0.0008756   119.2188924   0.0002805   
00375   119.2868519   0.0002734   0.0008693   119.4110646   0.0002728   59.6319293   39.7546195   0.0001867   119.2891779   0.0002817   0.0008778   119.5498812   0.0002811   
00376   119.7241804   0.0002734   0.0008715   119.8494489   0.0002728   59.8508534   39.9005689   0.0001874   119.724853   0.0002817   0.00088   119.9871854   0.0002811   
00377   120.1615106   0.0002734   0.0008737   120.2878333   0.0002728   60.0697773   40.0465182   0.000188   120.1605292   0.0002817   0.0008822   120.4244894   0.0002811   
00378   120.5988423   0.0002734   0.0008759   120.7262176   0.0002728   60.2887014   40.1924676   0.0001887   120.5962066   0.0002817   0.0008844   120.8617934   0.0002811   
00379   121.0326956   0.0002734   0.0008781   121.1612289   0.0002729   60.5059244   40.3372829   0.0001894   121.0329262   0.0002817   0.0008866   121.3001451   0.0002811   
00380   121.467542   0.0002734   0.0008803   121.5972606   0.0002729   60.7236707   40.4824471   0.0001901   121.4692846   0.0002817   0.0008888   121.7381748   0.0002811   
00381   121.827062   0.0002739   0.0008826   121.9581852   0.0002734   60.9039177   40.6026118   0.0001907   121.9176929   0.0002817   0.0008911   122.1824515   0.0002811   
00382   122.2644024   0.0002739   0.0008848   122.3965695   0.0002734   61.1228418   40.7485612   0.0001913   122.35338   0.0002817   0.0008932   122.6197555   0.0002811   
00383   122.6821512   0.000274   0.000887   122.8131913   0.0002735   61.330833   40.887222   0.000192   122.7896782   0.0002817   0.0008954   123.0563875   0.0002811   
00384   122.9341557   0.0002753   0.0008894   123.0639829   0.0002747   61.4560304   40.970687   0.0001924   123.2871354   0.0002817   0.0008979   123.5490154   0.0002811   
00385   123.368815   0.0002753   0.0008916   123.4996562   0.0002747   61.6736097   41.1157398   0.0001931   123.7237099   0.0002817   0.0009001   123.9872108   0.0002811   
00386   123.6954736   0.0002759   0.0008939   123.8339297   0.0002753   61.8404965   41.2269977   0.0001936   124.1465413   0.0002817   0.0009022   124.4158329   0.0002811   
00387   113.8741553   0.0003432   0.0009118   113.9641051   0.0003425   56.9105176   37.9403451   0.0001782   114.127424   0.0003503   0.0009202   114.3110708   0.0003495   
00388   114.3113653   0.0003432   0.000914   114.4024894   0.0003425   57.1294416   38.0862944   0.0001788   114.5629981   0.0003503   0.0009224   114.7483748   0.0003495   
00389   114.7485777   0.0003432   0.0009162   114.8408738   0.0003425   57.3483656   38.2322437   0.0001795   114.998574   0.0003503   0.0009246   115.1856789   0.0003495   
00390   115.1857927   0.0003432   0.0009183   115.2792581   0.0003425   57.5672896   38.3781931   0.0001802   115.434152   0.0003503   0.0009268   115.6229831   0.0003495   
00391   115.6230101   0.0003432   0.0009205   115.7176425   0.0003425   57.7862135   38.5241423   0.0001809   115.869732   0.0003503   0.000929   116.0602872   0.0003495   
00392   116.06023   0.0003432   0.0009227   116.1560268   0.0003425   58.0051375   38.6700917   0.0001816   116.3053138   0.0003503   0.0009312   116.4975912   0.0003495   
00393   116.4974524   0.0003432   0.0009249   116.5944112   0.0003425   58.2240615   38.816041   0.0001823   116.7408976   0.0003503   0.0009333   116.9348953   0.0003495   
00394   116.9181749   0.0003433   0.0009271   117.0170295   0.0003426   58.4351071   38.9567381   0.0001829   117.181073   0.0003503   0.0009355   117.3769946   0.0003495   
00395   117.3021408   0.0003437   0.0009294   117.4042269   0.0003429   58.6284244   39.0856162   0.0001835   117.6316276   0.0003503   0.0009378   117.8301785   0.0003495   
00396   117.7182169   0.0003438   0.0009316   117.8222535   0.0003431   58.837214   39.2248093   0.0001842   118.0730395   0.0003503   0.00094   118.2738304   0.0003495   
00397   118.1543668   0.0003438   0.0009338   118.2596487   0.0003431   59.0556441   39.3704294   0.0001849   118.5089646   0.0003503   0.0009422   118.7114346   0.0003495   
00398   118.5907139   0.0003438   0.000936   118.6971611   0.0003431   59.2741302   39.5160868   0.0001856   118.944811   0.0003503   0.0009444   119.1490147   0.0003495   
00399   118.7476453   0.0003456   0.0009386   118.8598637   0.0003449   59.3553648   39.5702432   0.0001858   118.6271803   0.0003544   0.000947   118.8391314   0.0003537   
00400   119.1813287   0.0003457   0.0009408   119.2947124   0.0003449   59.5725203   39.7150135   0.0001865   119.0639026   0.0003544   0.0009492   119.2775266   0.0003537   
00401   119.6171865   0.0003457   0.000943   119.7317252   0.0003449   59.7907588   39.8605058   0.0001872   119.4999205   0.0003544   0.0009514   119.7152527   0.0003537   
00402   120.0535654   0.0003457   0.0009452   120.1692398   0.0003449   60.0092501   40.0061667   0.0001879   119.9358081   0.0003544   0.0009535   120.1528113   0.0003537   
00403   120.4908439   0.0003457   0.0009474   120.6076241   0.0003449   60.2281738   40.1521159   0.0001885   120.3714256   0.0003544   0.0009557   120.5901154   0.0003537   
00404   120.9136598   0.0003458   0.0009496   121.0319495   0.000345   60.4400825   40.2933883   0.0001892   120.8113303   0.0003544   0.0009579   121.0317617   0.0003537   
00405   121.343472   0.0003458   0.0009518   121.4628765   0.0003451   60.6552816   40.4368544   0.0001899   121.249336   0.0003544   0.0009601   121.4712826   0.0003537   
00406   121.7579421   0.000346   0.000954   121.8792451   0.0003452   60.8632099   40.5754733   0.0001905   121.6919351   0.0003544   0.0009623   121.9154656   0.0003537   
00407   122.1935086   0.000346   0.0009562   122.3157717   0.0003452   61.0812107   40.7208071   0.0001912   122.127761   0.0003544   0.0009645   122.3528644   0.0003537   
00408   122.6241822   0.000346   0.0009584   122.7477655   0.0003452   61.2969443   40.8646295   0.0001919   122.5653937   0.0003544   0.0009667   122.7921634   0.0003537   
00409   123.0614777   0.000346   0.0009606   123.1861498   0.0003452   61.5158681   41.0105788   0.0001926   123.0010199   0.0003544   0.0009689   123.2294675   0.0003537   
00410   112.6459124   0.0004171   0.0009794   112.7272702   0.0004163   56.2915532   37.5277021   0.0001762   112.6269076   0.0004254   0.0009879   112.8637442   0.0004246   
00411   113.0830988   0.0004171   0.0009816   113.1656546   0.0004163   56.5104772   37.6736515   0.0001769   113.0624237   0.0004254   0.00099   113.3010484   0.0004246   
00412   113.5193033   0.0004171   0.0009838   113.6031256   0.0004163   56.7289475   37.8192983   0.0001776   113.4982335   0.0004254   0.0009922   113.7386234   0.0004246   
00413   113.9564954   0.0004171   0.0009859   114.04151   0.0004163   56.9478717   37.9652478   0.0001783   113.9337545   0.0004254   0.0009944   114.1759275   0.0004246   
00414   114.3928342   0.0004172   0.0009881   114.4791239   0.0004163   57.1664091   38.1109394   0.000179   114.3704087   0.0004254   0.0009966   114.6118296   0.0004246   
00415   114.8258855   0.0004172   0.0009903   114.9136585   0.0004163   57.3834002   38.2556001   0.0001796   114.8014528   0.0004255   0.0009988   115.0432518   0.0004246   
00416   115.2610781   0.0004172   0.0009925   115.3501956   0.0004163   57.6014018   38.4009345   0.0001803   115.2375764   0.0004255   0.001001   115.4809691   0.0004246   
00417   115.6892118   0.0004172   0.0009947   115.7799822   0.0004164   57.8160379   38.5440253   0.000181   115.6762169   0.0004255   0.0010032   115.9183943   0.0004246   
00418   116.0741666   0.0004176   0.000997   116.1679919   0.0004167   58.0098216   38.6732144   0.0001816   116.1245911   0.0004255   0.0010054   116.3557525   0.0004246   
00419   116.5113846   0.0004176   0.0009992   116.6063763   0.0004167   58.2287454   38.8191636   0.0001823   116.5601475   0.0004255   0.0010076   116.7930565   0.0004246   
00420   116.948605   0.0004176   0.0010014   117.0447606   0.0004167   58.4476696   38.965113   0.000183   116.9957058   0.0004255   0.0010098   117.2303606   0.0004246   
00421   117.380262   0.0004176   0.0010036   117.477699   0.0004167   58.6638772   39.1092515   0.0001836   117.4329107   0.0004255   0.001012   117.6693576   0.0004246   
00422   117.8174877   0.0004176   0.0010058   117.9160833   0.0004167   58.8828015   39.255201   0.0001843   117.8684732   0.0004255   0.0010142   118.1066616   0.0004246   
00423   118.2534822   0.0004176   0.0010079   118.3532927   0.0004167   59.1011346   39.4007564   0.000185   118.3043922   0.0004255   0.0010163   118.544319   0.0004246   
00424   118.6866018   0.0004176   0.0010101   118.7878595   0.0004168   59.318152   39.5454346   0.0001857   118.7411801   0.0004255   0.0010185   118.9827798   0.0004246   
00425   118.8434926   0.0004195   0.0010128   118.9453297   0.0004186   59.3967698   39.5978465   0.0001859   119.0252632   0.0004267   0.0010211   119.285799   0.0004258   
00426   119.2807268   0.0004195   0.0010149   119.383714   0.0004186   59.6156939   39.7437959   0.0001866   119.4608373   0.0004267   0.0010233   119.723103   0.0004258   
00427   119.7098735   0.0004195   0.0010171   119.8141775   0.0004187   59.8306814   39.887121   0.0001873   119.8984329   0.0004267   0.0010255   120.163014   0.0004258   
00428   120.1471129   0.0004195   0.0010193   120.2525619   0.0004187   60.0496054   40.0330703   0.000188   120.3340119   0.0004267   0.0010277   120.6003182   0.0004258   
00429   120.5673716   0.0004197   0.0010216   120.6738322   0.0004188   60.2599927   40.1733285   0.0001886   120.7752584   0.0004267   0.0010299   121.0428057   0.0004258   
00430   120.8797192   0.0004205   0.0010239   120.9875183   0.0004196   60.4168462   40.2778975   0.0001891   120.9506201   0.0004281   0.0010323   121.2273019   0.0004273   
00431   121.3102247   0.0004205   0.0010261   121.4191742   0.0004196   60.6323935   40.4215957   0.0001898   121.3650553   0.0004283   0.0010345   121.6361946   0.0004274   
00432   121.7367444   0.0004206   0.0010283   121.8468392   0.0004197   60.8459367   40.5639578   0.0001905   121.8057685   0.0004283   0.0010367   122.0634834   0.0004274   
00433   113.6202612   0.0004767   0.0010436   113.6867264   0.0004757   56.7700786   37.8467191   0.0001777   113.6198822   0.0004852   0.0010521   113.7191261   0.0004842   
00434   114.0566888   0.0004767   0.0010458   114.1244755   0.0004757   56.9886889   37.9924592   0.0001784   114.0554801   0.0004852   0.0010543   114.1565481   0.0004842   
00435   114.4443609   0.0004771   0.0010481   114.5162164   0.000476   57.1842181   38.122812   0.000179   114.5033043   0.0004852   0.0010565   114.6091868   0.0004842   
00436   114.8796794   0.0004771   0.0010502   114.9528646   0.000476   57.4022687   38.2681792   0.0001797   114.9389212   0.0004852   0.0010587   115.0472798   0.0004842   
00437   115.3161092   0.0004771   0.0010524   115.3905709   0.000476   57.6208476   38.4138984   0.0001804   115.3745758   0.0004852   0.0010609   115.4847922   0.0004842   
00438   115.7493268   0.0004771   0.0010546   115.8252484   0.0004761   57.8379113   38.5586075   0.0001811   115.8111857   0.0004852   0.0010631   115.923174   0.0004842   
00439   116.183278   0.0004771   0.0010568   116.2605349   0.0004761   58.0553114   38.7035409   0.0001817   116.2475476   0.0004852   0.0010652   116.36149   0.0004842   
00440   116.620433   0.0004771   0.001059   116.6989192   0.0004761   58.2742357   38.8494905   0.0001824   116.6830116   0.0004852   0.0010674   116.7987942   0.0004842   
00441   117.0547565   0.0004771   0.0010612   117.134609   0.0004761   58.4918091   38.9945394   0.0001831   117.1189327   0.0004852   0.0010696   117.2372314   0.0004842   
00442   117.4910088   0.0004771   0.0010634   117.5721588   0.0004761   58.7103221   39.1402148   0.0001838   117.5545765   0.0004852   0.0010718   117.6749217   0.0004842   
00443   117.9130835   0.0004772   0.0010656   117.9957234   0.0004762   58.921844   39.2812293   0.0001845   117.9945001   0.0004852   0.001074   118.1169292   0.0004842   
00444   118.3370482   0.0004773   0.0010678   118.4215235   0.0004763   59.1345135   39.423009   0.0001851   118.4328906   0.0004852   0.0010762   118.5583482   0.0004842   
00445   118.7698522   0.0004773   0.00107   118.8557195   0.0004763   59.3513337   39.5675558   0.0001858   118.8696773   0.0004852   0.0010784   118.99697   0.0004842   
00446   119.1688705   0.0004776   0.0010723   119.2575787   0.0004765   59.552025   39.70135   0.0001864   119.2415497   0.0004855   0.0010806   119.3767296   0.0004845   
00447   119.6043719   0.0004776   0.0010744   119.6943752   0.0004766   59.7701464   39.8467642   0.0001871   119.6775468   0.0004855   0.0010828   119.8144913   0.0004845   
00448   120.0359922   0.0004776   0.0010766   120.1275009   0.0004766   59.9864545   39.9909697   0.0001878   120.1145455   0.0004855   0.001085   120.2535044   0.0004845   
00449   120.3340924   0.0004785   0.001079   120.4295712   0.0004775   60.137363   40.0915753   0.0001883   120.5894648   0.0004855   0.0010874   120.7336522   0.0004845   
00450   120.7634243   0.0004786   0.0010812   120.8595752   0.0004775   60.3521659   40.2347773   0.0001889   121.0251177   0.0004855   0.0010896   121.1709319   0.0004845   
00451   121.0845096   0.0004793   0.0010836   121.1836716   0.0004783   60.5140071   40.3426714   0.0001894   120.855424   0.0004887   0.0010919   121.0290388   0.0004877   
00452   121.4958793   0.0004795   0.0010858   121.5965034   0.0004784   60.719913   40.479942   0.0001901   121.2984212   0.0004887   0.0010942   121.4729449   0.0004877   
00453   114.0826366   0.0005308   0.0010998   114.1334625   0.0005296   56.992593   37.995062   0.0001784   114.3208053   0.0005381   0.0011083   114.4515804   0.0005369   
00454   114.5169047   0.0005309   0.001102   114.5691985   0.0005297   57.2101808   38.1401205   0.0001791   114.7571118   0.0005381   0.0011105   114.8894981   0.0005369   
00455   114.9539866   0.0005309   0.0011042   115.0075829   0.0005297   57.4291048   38.2860699   0.0001798   115.1925239   0.0005381   0.0011127   115.3268021   0.0005369   
00456   115.3281502   0.0005312   0.0011064   115.3860179   0.00053   57.6181098   38.4120732   0.0001804   115.6458088   0.0005381   0.001115   115.7827283   0.0005369   
00457   115.7489829   0.0005314   0.0011087   115.8084867   0.0005301   57.8291575   38.5527716   0.000181   116.0860013   0.0005381   0.0011172   116.2249597   0.0005369   
00458   116.173293   0.0005314   0.0011109   116.2347619   0.0005302   58.042039   38.6946927   0.0001817   116.5251517   0.0005381   0.0011194   116.6657934   0.0005369   
00459   116.6019373   0.0005315   0.0011131   116.6649379   0.0005303   58.2568518   38.8379012   0.0001824   116.9458989   0.0005381   0.0011216   117.0872752   0.000537   
00460   117.0371042   0.0005315   0.0011153   117.1014232   0.0005303   58.4748218   38.9832146   0.0001831   117.3819259   0.0005381   0.0011238   117.5251665   0.000537   
00461   117.4621868   0.0005316   0.0011175   117.5279317   0.0005304   58.6878614   39.1252409   0.0001837   117.8211651   0.0005381   0.001126   117.9661551   0.000537   
00462   117.8921067   0.0005316   0.0011197   117.9594495   0.0005304   58.9033421   39.2688947   0.0001844   118.2587224   0.0005381   0.0011281   118.405514   0.000537   
00463   118.3278457   0.0005316   0.0011219   118.3965233   0.0005304   59.121611   39.4144073   0.0001851   118.6507886   0.0005384   0.0011303   118.8062115   0.0005372   
00464   118.7649766   0.0005316   0.001124   118.8349077   0.0005304   59.3405351   39.5603568   0.0001858   119.0862296   0.0005384   0.0011325   119.2435155   0.0005372   
00465   119.19719   0.0005317   0.0011262   119.2684877   0.0005305   59.5570392   39.7046928   0.0001864   119.5226885   0.0005384   0.0011347   119.6817635   0.0005372   
00466   113.403623   0.0005726   0.001138   113.444168   0.0005713   56.6474824   37.7649883   0.0001773   113.4837649   0.0005805   0.0011465   113.6186012   0.0005793   
00467   113.8396987   0.0005726   0.0011402   113.8816753   0.0005713   56.865978   37.910652   0.000178   113.9193192   0.0005805   0.0011487   114.0562831   0.0005793   
00468   114.2767447   0.0005726   0.0011423   114.3200596   0.0005713   57.0849022   38.0566015   0.0001787   114.3547067   0.0005805   0.0011509   114.4935872   0.0005793   
00469   114.6968648   0.0005727   0.0011446   114.7425521   0.0005714   57.2960536   38.197369   0.0001794   114.7949531   0.0005805   0.0011531   114.9355979   0.0005793   
00470   115.1339217   0.0005727   0.0011468   115.1809364   0.0005714   57.5149778   38.3433185   0.0001801   115.2303481   0.0005805   0.0011553   115.372902   0.0005793   
00471   115.5677001   0.0005727   0.0011489   115.6162012   0.0005714   57.7323189   38.4882126   0.0001807   115.6667118   0.0005805   0.0011575   115.8111454   0.0005793   
00472   116.0023947   0.0005727   0.0011511   116.0523641   0.0005714   57.9501458   38.6334306   0.0001814   116.1030387   0.0005805   0.0011597   116.2486629   0.0005793   
00473   116.4340384   0.0005728   0.0011533   116.4856268   0.0005714   58.166503   38.7776687   0.0001821   116.539983   0.0005805   0.0011618   116.6875674   0.0005793   
00474   116.8548584   0.0005729   0.0011555   116.9084834   0.0005715   58.37759   38.9183933   0.0001828   116.9801192   0.0005805   0.001164   117.1293856   0.0005793   
00475   117.2608517   0.0005731   0.0011578   117.3168625   0.0005717   58.5815359   39.0543572   0.0001834   117.2688913   0.0005813   0.0011663   117.4334215   0.00058   
00476   117.6906836   0.0005731   0.00116   117.7482171   0.0005718   58.7969828   39.1979886   0.0001841   117.7065072   0.0005813   0.0011685   117.8728834   0.00058   
00477   118.1218213   0.0005732   0.0011622   118.1809247   0.0005718   59.0130668   39.3420445   0.0001847   118.1437284   0.0005813   0.0011707   118.3119337   0.00058   
00478   118.5447266   0.0005732   0.0011644   118.605719   0.0005719   59.2251939   39.4834626   0.0001854   118.5858976   0.0005813   0.0011729   118.7499963   0.00058   
00479   118.9554879   0.0005734   0.0011666   119.0187558   0.0005721   59.4313509   39.6209006   0.0001861   119.0292311   0.0005813   0.0011751   119.19502   0.00058   
00480   119.3862831   0.0005734   0.0011688   119.4509949   0.0005721   59.647169   39.7647793   0.0001867   119.4665688   0.0005813   0.0011773   119.6342016   0.00058   
00481   119.8233963   0.0005734   0.001171   119.8893793   0.0005721   59.866093   39.9107287   0.0001874   119.9020092   0.0005813   0.0011795   120.0715057   0.00058   
00482   120.2531449   0.0005735   0.0011732   120.3204839   0.0005722   60.0813428   40.0542285   0.0001881   120.2730889   0.0005816   0.0011816   120.4423387   0.0005803   
00483   120.61161   0.000574   0.0011755   120.6813881   0.0005726   60.2617097   40.1744731   0.0001887   120.7301611   0.0005816   0.0011839   120.9016431   0.0005803   
00484   113.1792419   0.0006256   0.0011897   113.2055125   0.0006242   56.5286725   37.6857816   0.000177   113.3265606   0.0006332   0.0011983   113.5013115   0.0006318   
00485   113.6049853   0.0006257   0.0011919   113.6333056   0.0006242   56.7421706   37.8281137   0.0001776   113.7638307   0.0006332   0.0012005   113.9430504   0.0006318   
00486   114.0356074   0.0006257   0.0011941   114.0657459   0.0006243   56.9581005   37.972067   0.0001783   114.200873   0.0006332   0.0012027   114.3821475   0.0006318   
00487   114.4726129   0.0006257   0.0011963   114.5041302   0.0006243   57.1770245   38.1180163   0.000179   114.6362038   0.0006332   0.0012049   114.8194517   0.0006318   
00488   114.9096225   0.0006257   0.0011985   114.9425145   0.0006243   57.3959486   38.2639658   0.0001797   115.0715386   0.0006332   0.001207   115.2567558   0.0006318   
00489   115.3438299   0.0006258   0.0012007   115.3782616   0.0006243   57.6135348   38.4090232   0.0001804   115.5073752   0.0006332   0.0012092   115.6947753   0.0006318   
00490   115.7776906   0.0006258   0.0012029   115.8136198   0.0006243   57.8309392   38.5539595   0.000181   115.9436868   0.0006332   0.0012114   116.1329827   0.0006318   
00491   116.1769371   0.000626   0.0012051   116.2158328   0.0006246   58.0314316   38.6876211   0.0001817   116.3624907   0.0006333   0.0012136   116.5574451   0.0006319   
00492   116.6068513   0.0006261   0.0012073   116.6473317   0.0006246   58.2468731   38.8312488   0.0001823   116.7999907   0.0006333   0.0012158   116.9967488   0.0006319   
00493   117.042247   0.0006261   0.0012095   117.0841815   0.0006246   58.4650213   38.9766809   0.000183   117.195673   0.0006335   0.001218   117.4009914   0.0006321   
00494   117.4575502   0.0006262   0.0012117   117.5015562   0.0006248   58.6735015   39.1156676   0.0001837   117.556563   0.0006339   0.0012202   117.7595219   0.0006325   
00495   117.8907741   0.0006262   0.0012139   117.9362706   0.0006248   58.8906472   39.2604315   0.0001844   117.9930052   0.0006339   0.0012224   118.1980218   0.0006325   
00496   118.3270601   0.0006262   0.0012161   118.3739281   0.0006248   59.1092164   39.4061443   0.000185   118.4285834   0.0006339   0.0012246   118.6355635   0.0006325   
00497   118.758857   0.0006263   0.0012183   118.807296   0.0006248   59.32567   39.5504466   0.0001857   118.8653701   0.0006339   0.0012268   119.0746363   0.0006325   
00498   119.195917   0.0006263   0.0012205   119.2456803   0.0006248   59.5445941   39.696396   0.0001864   119.3007541   0.0006339   0.001229   119.5119404   0.0006325   
00499   119.5419489   0.0006269   0.0012228   119.5948862   0.0006254   59.718821   39.8125474   0.000187   119.7299906   0.000634   0.0012313   119.9543507   0.0006326   
00500   119.9772697   0.0006269   0.001225   120.0315719   0.0006254   59.9368961   39.9579307   0.0001876   120.1661082   0.000634   0.0012335   120.3913747   0.0006326   
00501   120.3963714   0.000627   0.0012272   120.4525329   0.0006255   60.1473177   40.0982118   0.0001883   120.6059527   0.000634   0.0012357   120.8349356   0.0006326   
00502   120.8239732   0.000627   0.0012294   120.8806161   0.0006255   60.3610594   40.2407063   0.000189   121.038607   0.000634   0.0012379   121.2685123   0.0006326   
00503   121.2280491   0.0006271   0.0012315   121.2846388   0.0006257   60.5626481   40.3750987   0.0001896   121.4745295   0.000634   0.00124   121.7032956   0.0006326   
00504   121.6570544   0.0006272   0.0012337   121.71511   0.0006257   60.7776368   40.5184245   0.0001903   121.9116248   0.000634   0.0012422   122.1422961   0.0006326   
00505   112.3527433   0.0006869   0.0012467   112.426566   0.0006852   56.1447452   37.4298301   0.0001757   112.2049063   0.0007022   0.0012616   112.4697136   0.0007005   
00506   112.7888407   0.0006869   0.0012488   112.8641384   0.0006852   56.3632995   37.575533   0.0001764   112.6405776   0.0007022   0.0012637   112.90765   0.0007005   
00507   113.2248926   0.0006869   0.001251   113.3016574   0.0006852   56.5818212   37.7212141   0.0001771   113.0759061   0.0007022   0.0012659   113.345066   0.0007005   
00508   113.6618795   0.0006869   0.0012532   113.7400417   0.0006852   56.8007452   37.8671634   0.0001778   113.5112046   0.0007022   0.0012681   113.7823701   0.0007005   
00509   114.0946453   0.0006869   0.0012554   114.1743626   0.0006853   57.0176347   38.0117564   0.0001785   113.9476213   0.0007022   0.0012703   114.2209814   0.0007005   
00510   114.5316415   0.0006869   0.0012576   114.6127469   0.0006853   57.2365586   38.1577057   0.0001792   114.3829283   0.0007022   0.0012725   114.6582856   0.0007005   
00511   114.9424965   0.0006871   0.0012598   115.0257096   0.0006854   57.4427393   38.2951595   0.0001798   114.8304645   0.0007022   0.0012747   115.1061198   0.0007005   
00512   115.3783929   0.0006871   0.001262   115.4630413   0.0006854   57.661133   38.4407553   0.0001805   115.2656757   0.0007022   0.0012769   115.5434093   0.0007005   
00513   115.807159   0.0006872   0.0012642   115.8934893   0.0006855   57.876043   38.5840286   0.0001812   115.7034984   0.0007022   0.0012791   115.9833887   0.0007005   
00514   116.2441794   0.0006872   0.0012664   116.3318737   0.0006855   58.094967   38.729978   0.0001818   116.1388278   0.0007022   0.0012813   116.4206926   0.0007005   
00515   116.6795356   0.0006872   0.0012686   116.7686429   0.0006855   58.3131025   38.8754017   0.0001825   116.5749393   0.0007022   0.0012835   116.8588723   0.0007005   
00516   117.1165641   0.0006872   0.0012708   117.2070272   0.0006855   58.5320267   39.0213511   0.0001832   117.0102764   0.0007022   0.0012856   117.2961763   0.0007005   
00517   117.510671   0.0006874   0.0012731   117.6027048   0.0006858   58.7291856   39.1527904   0.0001838   117.1149168   0.0007039   0.0012879   117.428174   0.0007022   
00518   117.9038653   0.0006877   0.0012753   117.997508   0.0006861   58.9265527   39.2843685   0.0001844   117.4295966   0.0007046   0.0012902   117.7373431   0.0007029   
00519   118.3400298   0.0006877   0.0012775   118.4350015   0.0006861   59.1449954   39.4299969   0.0001851   117.8653657   0.0007046   0.0012924   118.1750431   0.0007029   
00520   118.7705263   0.0006878   0.0012797   118.8670776   0.0006861   59.360733   39.573822   0.0001858   118.3007064   0.0007046   0.0012946   118.6126802   0.0007029   
00521   119.2062898   0.0006878   0.0012819   119.304209   0.0006861   59.5789993   39.7193329   0.0001865   118.7366282   0.0007046   0.0012968   119.0504608   0.0007029   
00522   119.6325332   0.0006878   0.001284   119.7316205   0.0006861   59.7924152   39.8616101   0.0001872   119.1687478   0.0007046   0.0012989   119.483476   0.0007029   
00523   120.0669645   0.0006878   0.0012862   120.1675014   0.0006861   60.0100635   40.006709   0.0001878   119.604907   0.0007046   0.0013011   119.9215167   0.0007029   
00524   120.5029807   0.0006878   0.0012884   120.6048386   0.0006861   60.2284542   40.1523028   0.0001885   120.0406161   0.0007046   0.0013033   120.3591376   0.0007029   
00525   120.9307575   0.0006879   0.0012906   121.0343585   0.0006862   60.4429411   40.295294   0.0001892   120.4782015   0.0007046   0.0013055   120.7987725   0.0007029   
00526   121.3651628   0.0006879   0.0012928   121.469924   0.0006862   60.6605397   40.4403598   0.0001899   120.9139929   0.0007046   0.0013077   121.2363568   0.0007029   
00527   121.7648875   0.000688   0.0012949   121.8705256   0.0006863   60.8603157   40.5735438   0.0001905   121.2456828   0.0007051   0.0013098   121.5669757   0.0007034   
00528   122.1939404   0.000688   0.001297   122.3008082   0.0006863   61.0749354   40.7166236   0.0001912   121.6782853   0.0007051   0.001312   122.0010394   0.0007034   
00529   122.6200701   0.000688   0.0012992   122.7280606   0.0006864   61.2882332   40.8588221   0.0001918   122.0447707   0.0007054   0.0013141   122.3694328   0.0007037   
00530   113.6850481   0.0007495   0.0013158   113.7394649   0.0007477   56.8001302   37.8667535   0.0001778   113.3485496   0.0007662   0.0013312   113.654607   0.0007644   
00531   114.119392   0.0007496   0.001318   114.1753799   0.0007477   57.0178952   38.0119302   0.0001785   113.7844625   0.0007662   0.0013333   114.0926646   0.0007644   
00532   114.5563579   0.0007496   0.0013202   114.6137642   0.0007477   57.2368192   38.1578794   0.0001792   114.219692   0.0007662   0.0013355   114.5299687   0.0007644   
00533   114.9933283   0.0007496   0.0013223   115.0521485   0.0007477   57.4557429   38.3038286   0.0001798   114.6549261   0.0007662   0.0013377   114.9672728   0.0007644   
00534   115.267389   0.0007506   0.0013248   115.3321359   0.0007488   57.5964705   38.397647   0.0001803   115.1393713   0.0007662   0.0013401   115.4568709   0.0007644   
00535   115.7025671   0.0007506   0.001327   115.7688101   0.0007488   57.8145435   38.543029   0.000181   115.4897413   0.0007666   0.0013423   115.8210828   0.0007648   
00536   116.1390655   0.0007506   0.0013292   116.206737   0.0007488   58.0332311   38.6888207   0.0001816   115.9244807   0.0007666   0.0013445   116.2587272   0.0007648   
00537   116.5760712   0.0007506   0.0013313   116.6451213   0.0007488   58.2521552   38.8347701   0.0001823   116.3597351   0.0007666   0.0013467   116.6960312   0.0007648   
00538   117.013081   0.0007506   0.0013335   117.0835057   0.0007488   58.4710793   38.9807195   0.000183   116.7949941   0.0007666   0.0013489   117.1333352   0.0007648   
00539   117.4364173   0.0007507   0.0013357   117.5087541   0.0007489   58.6834519   39.1223012   0.0001837   117.2337425   0.0007666   0.0013511   117.5755836   0.0007648   
00540   117.8734377   0.0007507   0.0013379   117.9471385   0.0007489   58.902376   39.2682507   0.0001844   117.6690153   0.0007666   0.0013533   118.0128878   0.0007648   
00541   118.3006866   0.0007508   0.0013401   118.3759858   0.0007489   59.1165354   39.4110236   0.000185   118.1008014   0.0007666   0.0013555   118.4463405   0.0007648   
00542   118.7357753   0.0007508   0.0013423   118.8124715   0.000749   59.3345823   39.5563882   0.0001857   118.5367913   0.0007666   0.0013576   118.8841637   0.0007648   
00543   119.1719337   0.0007508   0.0013445   119.2500063   0.000749   59.5530674   39.7020449   0.0001864   118.9721059   0.0007666   0.0013598   119.3219316   0.0007648   
00544   119.6089707   0.0007508   0.0013467   119.6883907   0.000749   59.7719912   39.8479941   0.0001871   119.407409   0.0007666   0.001362   119.7592357   0.0007648   
00545   119.9804769   0.0007512   0.001349   120.0621321   0.0007494   59.9592807   39.9728538   0.0001877   119.8511121   0.0007667   0.0013643   120.2114479   0.0007648   
00546   120.4165326   0.0007512   0.0013512   120.4997   0.0007494   60.1777898   40.1185266   0.0001884   120.2861497   0.0007667   0.0013665   120.6485394   0.0007648   
00547   120.8535857   0.0007512   0.0013534   120.9380844   0.0007494   60.396714   40.264476   0.000189   120.7214916   0.0007667   0.0013687   121.0858435   0.0007648   
00548   121.2537616   0.0007514   0.0013556   121.3410298   0.0007496   60.597363   40.398242   0.0001897   121.1660382   0.0007667   0.0013709   121.5331868   0.0007648   
00549   121.6899064   0.0007515   0.0013578   121.7785504   0.0007496   60.8158279   40.5438852   0.0001904   121.601311   0.0007667   0.0013731   121.9705024   0.0007648   
00550   122.1132622   0.0007515   0.00136   122.2025421   0.0007497   61.0277486   40.6851657   0.000191   122.0349671   0.0007667   0.0013752   122.4052933   0.0007648   
00551   122.5104096   0.0007517   0.0013622   122.6006611   0.0007499   61.2269004   40.8179336   0.0001916   122.046231   0.0007688   0.0013775   122.439161   0.000767   
00552   122.927733   0.0007518   0.0013644   123.0196673   0.00075   61.4362167   40.9574778   0.0001923   122.4577702   0.0007689   0.0013797   122.8527348   0.0007671   
00553   113.1150978   0.000819   0.0013822   113.1520567   0.000817   56.5053932   37.6702621   0.0001769   112.6169118   0.0008365   0.0013977   112.9306037   0.0008345   
00554   113.549648   0.000819   0.0013843   113.5881726   0.000817   56.7231898   37.8154598   0.0001775   113.0528454   0.0008365   0.0013999   113.3685911   0.0008345   
00555   113.98657   0.000819   0.0013865   114.0265569   0.000817   56.9421139   37.9614092   0.0001782   113.4880768   0.0008365   0.0014021   113.8058953   0.0008345   
00556   114.4234967   0.000819   0.0013887   114.4649412   0.000817   57.1610379   38.1073586   0.0001789   113.9233128   0.0008365   0.0014042   114.2431993   0.0008345   
00557   114.8604281   0.000819   0.0013909   114.9033256   0.000817   57.3799619   38.2533079   0.0001796   114.3585534   0.0008365   0.0014064   114.6805035   0.0008345   
00558   115.296754   0.000819   0.0013931   115.3411126   0.000817   57.5985917   38.3990612   0.0001803   114.7611566   0.0008367   0.0014086   115.0888902   0.0008347   
00559   115.7316867   0.000819   0.0013953   115.7775938   0.000817   57.8165016   38.5443344   0.000181   115.19699   0.0008367   0.0014108   115.5267624   0.0008347   
00560   116.1664973   0.000819   0.0013975   116.2138893   0.0008171   58.0343118   38.6895412   0.0001817   115.6324978   0.0008367   0.001413   115.9650493   0.0008347   
00561   116.6034475   0.000819   0.0013997   116.6522736   0.0008171   58.2532359   38.8354906   0.0001823   116.0677577   0.0008367   0.0014152   116.4023533   0.0008347   
00562   117.0380376   0.000819   0.0014019   117.0884152   0.0008171   58.4710074   38.9806716   0.000183   116.5037554   0.0008367   0.0014173   116.8402841   0.0008347   
00563   117.4688376   0.0008191   0.0014041   117.5208273   0.0008171   58.6867959   39.1245306   0.0001837   116.9408812   0.0008367   0.0014195   117.2794044   0.0008347   
00564   117.9030583   0.0008191   0.0014063   117.9565545   0.0008171   58.9043591   39.2695727   0.0001844   117.3769483   0.0008367   0.0014217   117.7174052   0.0008347   
00565   118.3395082   0.0008191   0.0014084   118.3944195   0.0008171   59.1230288   39.4153525   0.0001851   117.8123935   0.0008367   0.0014239   118.1548677   0.0008347   
00566   118.7742539   0.0008191   0.0014106   118.8306398   0.0008171   59.3408847   39.5605898   0.0001857   118.2181125   0.0008368   0.0014261   118.5662693   0.0008348   
00567   119.2104813   0.0008191   0.0014128   119.2683041   0.0008172   59.5594258   39.7062838   0.0001864   118.6359545   0.0008369   0.0014283   118.9897145   0.0008349   
00568   119.1615083   0.0008223   0.0014158   119.2241466   0.0008203   59.5390149   39.6926766   0.0001864   118.9437072   0.0008382   0.0014312   119.3148495   0.0008363   
00569   119.5928868   0.0008223   0.001418   119.6570644   0.0008203   59.7552446   39.8368297   0.000187   119.3827324   0.0008382   0.0014334   119.7511358   0.0008363   
00570   120.0259442   0.0008223   0.0014201   120.0914784   0.0008204   59.9722441   39.981496   0.0001877   119.7874184   0.0008384   0.0014356   120.1615105   0.0008364   
00571   120.4629518   0.0008223   0.0014223   120.5298628   0.0008204   60.1911681   40.1274454   0.0001884   120.2227371   0.0008384   0.0014378   120.5988145   0.0008364   
00572   113.4976883   0.000871   0.0014359   113.5160034   0.0008689   56.6851031   37.7900687   0.0001774   112.8678176   0.0008892   0.0014514   113.181478   0.0008871   
00573   113.9345341   0.000871   0.0014381   113.9543878   0.0008689   56.9040271   37.9360181   0.0001781   113.3029701   0.0008892   0.0014536   113.618782   0.0008871   
00574   114.2740835   0.0008717   0.0014404   114.2999695   0.0008695   57.0769321   38.0512881   0.0001787   113.7657008   0.0008892   0.0014559   114.0833061   0.0008871   
00575   114.7109577   0.0008717   0.0014426   114.7383539   0.0008695   57.2958561   38.1972374   0.0001793   114.2008717   0.0008892   0.0014581   114.5206103   0.0008871   
00576   115.1478368   0.0008717   0.0014448   115.1767382   0.0008695   57.5147802   38.3431868   0.00018   114.6360473   0.0008892   0.0014603   114.9579144   0.0008871   
00577   115.5455672   0.0008719   0.001447   115.577429   0.0008698   57.7154512   38.4769675   0.0001807   115.0822023   0.0008892   0.0014625   115.4059057   0.0008871   
00578   115.9704641   0.000872   0.0014492   116.0043267   0.0008699   57.9285849   38.6190566   0.0001813   115.5208071   0.0008892   0.0014647   115.8465773   0.0008871   
00579   116.4018032   0.000872   0.0014514   116.4373341   0.0008699   58.144849   38.7632327   0.000182   115.9171778   0.0008894   0.0014669   116.2493229   0.0008873   
00580   116.812754   0.0008722   0.0014537   116.8505112   0.0008701   58.3508206   38.900547   0.0001826   116.3613117   0.0008894   0.0014691   116.6917553   0.0008873   
00581   117.2496681   0.0008722   0.0014558   117.2888955   0.0008701   58.5697446   39.0464964   0.0001833   116.7965241   0.0008894   0.0014713   117.1290593   0.0008873   
00582   117.6857906   0.0008722   0.001458   117.7264934   0.0008701   58.7882936   39.1921957   0.000184   117.232   0.0008894   0.0014735   117.5665984   0.0008873   
00583   118.1196859   0.0008722   0.0014602   118.1618408   0.0008701   59.0057171   39.3371448   0.0001847   117.6682291   0.0008894   0.0014757   118.0046578   0.0008873   
00584   118.5551273   0.0008722   0.0014624   118.5987875   0.0008701   59.2239447   39.4826298   0.0001854   118.0773352   0.0008895   0.0014779   118.4194756   0.0008874   
00585   118.9666464   0.0008724   0.0014646   119.012435   0.0008702   59.4305513   39.6203675   0.000186   118.5206499   0.0008895   0.0014801   118.8622943   0.0008874   
00586   119.4035859   0.0008724   0.0014668   119.4508194   0.0008702   59.6494752   39.7663168   0.0001867   118.95589   0.0008895   0.0014823   119.2995985   0.0008874   
00587   119.8396496   0.0008724   0.001469   119.8883688   0.0008703   59.8679807   39.9119872   0.0001874   119.3377875   0.0008897   0.0014845   119.6961889   0.0008876   
00588   120.262876   0.0008724   0.0014712   120.3133603   0.0008703   60.0803759   40.053584   0.0001881   119.7528238   0.0008898   0.0014867   120.1110027   0.0008877   
00589   120.6863913   0.0008725   0.0014734   120.7373659   0.0008703   60.2922643   40.1948428   0.0001887   120.1909327   0.0008898   0.0014888   120.5374541   0.0008877   
00590   121.1207264   0.0008725   0.0014756   121.1729122   0.0008704   60.509758   40.3398387   0.0001894   120.5794913   0.0008901   0.001491   120.9352866   0.000888   
00591   121.463643   0.000873   0.0014778   121.5181753   0.0008709   60.6815965   40.4543977   0.0001899   121.0341432   0.0008901   0.0014933   121.3905502   0.000888   
00592   121.8821589   0.0008731   0.0014799   121.9361686   0.0008709   60.8903965   40.5935977   0.0001906   121.4586244   0.0008901   0.0014954   121.8140915   0.000888   
00593   122.2945765   0.0008731   0.001482   122.3475175   0.0008709   61.0960342   40.7306895   0.0001912   121.8787842   0.0008901   0.0014975   122.2324279   0.000888   
00594   122.6029278   0.0008739   0.0014844   122.6572371   0.0008717   61.2512606   40.8341737   0.0001917   122.3163404   0.0008902   0.0014999   122.6690544   0.0008881   
00595   122.9796411   0.0008742   0.0014866   123.0337394   0.000872   61.4391741   40.9594494   0.0001923   122.7622255   0.0008902   0.0015021   123.1127886   0.0008881   
00596   113.2386772   0.000941   0.0015043   113.2378859   0.0009387   56.5476107   37.6984071   0.000177   112.7511915   0.0009585   0.00152   113.0418422   0.0009563   
00597   113.6660015   0.0009411   0.0015065   113.6673046   0.0009388   56.7619676   37.8413117   0.0001777   113.1890854   0.0009585   0.0015222   113.481818   0.0009563   
00598   114.1008044   0.0009411   0.0015087   114.1037894   0.0009388   56.9799087   37.9866058   0.0001784   113.624806   0.0009585   0.0015244   113.9196907   0.0009563   
00599   114.5313675   0.0009411   0.0015109   114.5363595   0.0009389   57.1958571   38.1305714   0.000179   114.0608269   0.0009585   0.0015266   114.358667   0.0009563   
00600   114.792304   0.0009422   0.0015134   114.8052853   0.00094   57.3303273   38.2202182   0.0001795   114.5458329   0.0009585   0.001529   114.8465364   0.0009563   
00601   115.1963397   0.0009424   0.0015156   115.2124191   0.0009402   57.533547   38.355698   0.0001801   114.9425   0.0009588   0.0015313   115.238699   0.0009566   
00602   115.633199   0.0009424   0.0015178   115.6508034   0.0009402   57.7524711   38.5016474   0.0001808   115.3776623   0.0009588   0.0015334   115.6760032   0.0009566   
00603   116.054508   0.0009425   0.00152   116.0741761   0.0009403   57.9638508   38.6425672   0.0001814   115.8174891   0.0009588   0.0015356   116.1178117   0.0009566   
00604   116.4887073   0.0009426   0.0015222   116.5099511   0.0009403   58.1814028   38.7876019   0.0001821   116.2535159   0.0009588   0.0015378   116.5558963   0.0009566   
00605   116.8974725   0.0009427   0.0015244   116.9209003   0.0009405   58.3865422   38.9243614   0.0001828   116.6362174   0.0009591   0.00154   116.9349884   0.0009569   
00606   117.3343566   0.0009427   0.0015266   117.3592846   0.0009405   58.6054662   39.0703108   0.0001834   117.0713975   0.0009591   0.0015422   117.3722924   0.0009569   
00607   117.7680619   0.0009428   0.0015288   117.7945494   0.0009405   58.8227697   39.2151798   0.0001841   117.5075345   0.0009591   0.0015444   117.8105547   0.0009569   
00608   118.204956   0.0009428   0.001531   118.2329338   0.0009405   59.0416938   39.3611292   0.0001848   117.9427244   0.0009591   0.0015466   118.2478587   0.0009569   
00609   118.6407004   0.0009428   0.0015332   118.6702116   0.0009405   59.2600684   39.5067123   0.0001855   118.3782529   0.0009591   0.0015488   118.6855027   0.0009569   
00610   119.0776041   0.0009428   0.0015354   119.108596   0.0009405   59.4789926   39.6526617   0.0001862   118.8134522   0.0009591   0.001551   119.1228068   0.0009569   
00611   119.5145125   0.0009428   0.0015376   119.5469803   0.0009405   59.6979165   39.798611   0.0001869   119.2486563   0.0009591   0.0015531   119.560111   0.0009569   
00612   119.9471714   0.0009428   0.0015398   119.9812483   0.0009405   59.914869   39.943246   0.0001875   119.640987   0.0009593   0.0015553   119.9613571   0.0009571   
00613   120.3395876   0.0009431   0.001542   120.3759797   0.0009408   60.1118702   40.0745801   0.0001882   119.8797256   0.0009604   0.0015576   120.1926382   0.0009581   
00614   120.7743681   0.0009431   0.0015442   120.812254   0.0009408   60.3296849   40.2197899   0.0001888   120.3156818   0.0009604   0.0015598   120.6305737   0.0009581   
00615   121.2061209   0.0009431   0.0015464   121.2455611   0.0009408   60.5461129   40.3640752   0.0001895   120.7523243   0.0009604   0.001562   121.0696327   0.0009581   
00616   121.5602261   0.0009437   0.0015487   121.6015294   0.0009414   60.7239794   40.4826529   0.0001901   121.2116825   0.0009604   0.0015643   121.5317868   0.0009581   
00617   121.9971669   0.0009437   0.0015509   122.0399137   0.0009414   60.9429035   40.6286023   0.0001908   121.6469446   0.0009604   0.0015664   121.9690908   0.0009581   
00618   122.4240465   0.0009437   0.0015531   122.4685195   0.0009414   61.1570952   40.7713968   0.0001914   122.0841763   0.0009604   0.0015686   122.4086346   0.0009581   
00619   122.7468136   0.0009445   0.0015555   122.7916688   0.0009422   61.3178559   40.8785706   0.0001919   122.5550923   0.0009604   0.001571   122.8803342   0.0009581   
00620   123.1608677   0.0009445   0.0015576   123.2064097   0.0009423   61.5249943   41.0166629   0.0001926   122.9870631   0.0009604   0.0015732   123.3101078   0.0009581   
00621   123.5086093   0.0009451   0.0015599   123.555654   0.0009428   61.6995519   41.1330346   0.0001931   122.8972077   0.0009631   0.0015754   123.2459616   0.0009608   
00622   123.938125   0.0009451   0.0015621   123.9859131   0.0009428   61.9144319   41.2762879   0.0001938   123.3315873   0.0009631   0.0015776   123.682046   0.0009608   
00623   113.6245111   0.0010157   0.0015808   113.6124763   0.0010133   56.7324328   37.8216219   0.0001776   113.0677278   0.0010337   0.0015964   113.2859625   0.0010313   
00624   114.0612671   0.0010157   0.0015829   114.0508607   0.0010133   56.9513568   37.9675712   0.0001783   113.5028052   0.0010337   0.0015986   113.7232667   0.0010313   
00625   114.4968455   0.0010157   0.0015851   114.4881564   0.0010133   57.1697531   38.1131688   0.0001789   113.9381518   0.0010337   0.0016008   114.1609432   0.0010313   
00626   114.9336139   0.0010157   0.0015873   114.9265408   0.0010133   57.3886774   38.2591183   0.0001796   114.3732407   0.0010337   0.001603   114.5982474   0.0010313   
00627   115.3685443   0.0010158   0.0015895   115.36323   0.0010133   57.6067511   38.4045007   0.0001803   114.8088456   0.0010337   0.0016052   115.0360743   0.0010313   
00628   115.8038027   0.0010158   0.0015917   115.8002127   0.0010133   57.8249553   38.5499702   0.000181   115.244238   0.0010337   0.0016074   115.4739364   0.0010313   
00629   116.2405896   0.0010158   0.0015939   116.238597   0.0010133   58.0438793   38.6959195   0.0001817   115.6793441   0.0010337   0.0016095   115.9112406   0.0010313   
00630   116.6773822   0.0010158   0.0015961   116.6769814   0.0010133   58.2628032   38.8418688   0.0001824   116.1144555   0.0010337   0.0016117   116.3485445   0.0010313   
00631   117.1141803   0.0010158   0.0015983   117.1153657   0.0010133   58.4817274   38.9878182   0.0001831   116.5495724   0.0010337   0.0016139   116.7858487   0.0010313   
00632   117.5509841   0.0010158   0.0016005   117.5537501   0.0010133   58.7006515   39.1337677   0.0001837   116.9846948   0.0010337   0.0016161   117.2231529   0.0010313   
00633   117.9847431   0.0010158   0.0016027   117.9891114   0.0010133   58.9181194   39.2787463   0.0001844   117.4207409   0.0010337   0.0016183   117.6614184   0.0010313   
00634   118.41906   0.0010158   0.0016049   118.4251659   0.0010134   59.1359006   39.4239337   0.0001851   117.8565047   0.0010337   0.0016205   118.0995087   0.0010313   
00635   118.5231159   0.0010179   0.0016075   118.5353944   0.0010155   59.1908335   39.4605557   0.0001853   117.7391823   0.0010369   0.0016231   118.0068733   0.0010345   
00636   118.9453471   0.001018   0.0016098   118.9595813   0.0010156   59.4027632   39.6018422   0.0001859   118.1782586   0.0010369   0.0016253   118.4485175   0.0010345   
00637   119.3694387   0.0010181   0.001612   119.385633   0.0010157   59.6154718   39.7436479   0.0001866   118.6168856   0.0010369   0.0016275   118.8899718   0.0010345   
00638   119.8050451   0.0010181   0.0016141   119.8228509   0.0010157   59.8338096   39.8892064   0.0001873   119.0524345   0.0010369   0.0016297   119.3276334   0.0010345   
00639   120.2419082   0.0010181   0.0016163   120.2612352   0.0010157   60.0527337   40.0351558   0.000188   119.4876259   0.0010369   0.0016319   119.7649377   0.0010345   
00640   120.6716278   0.0010182   0.0016185   120.6924148   0.0010157   60.2680987   40.1787325   0.0001886   119.9238874   0.0010369   0.0016341   120.2043025   0.0010345   
00641   113.4753824   0.0010683   0.0016324   113.4510397   0.0010658   56.6513949   37.7675966   0.0001773   112.8066345   0.0010869   0.0016481   113.0251324   0.0010843   
00642   113.9120906   0.0010683   0.0016346   113.889424   0.0010658   56.8703189   37.9135459   0.000178   113.241651   0.0010869   0.0016503   113.4624363   0.0010843   
00643   114.3479757   0.0010684   0.0016368   114.3270332   0.0010658   57.0888519   38.0592346   0.0001787   113.6768813   0.0010869   0.0016525   113.8999785   0.0010843   
00644   114.7846969   0.0010684   0.001639   114.7654175   0.0010658   57.3077763   38.2051842   0.0001794   114.1119102   0.0010869   0.0016546   114.3372825   0.0010843   
00645   115.2214243   0.0010684   0.0016412   115.2038018   0.0010658   57.5267   38.3511333   0.0001801   114.5469455   0.0010869   0.0016568   114.7745866   0.0010843   
00646   115.6528515   0.0010684   0.0016434   115.6371958   0.0010658   57.7430649   38.4953766   0.0001807   114.9834709   0.0010869   0.001659   115.2132495   0.0010843   
00647   116.0895924   0.0010684   0.0016456   116.0755801   0.0010658   57.961989   38.641326   0.0001814   115.4185189   0.0010869   0.0016612   115.6505535   0.0010843   
00648   116.4585209   0.0010688   0.0016479   116.4478274   0.0010662   58.1480829   38.7653886   0.000182   115.62074   0.0010881   0.0016635   115.8718197   0.0010856   
00649   116.895281   0.0010688   0.00165   116.8862117   0.0010662   58.3670069   38.9113379   0.0001827   116.055835   0.0010881   0.0016657   116.3091239   0.0010856   
00650   117.254752   0.0010693   0.0016523   117.2503609   0.0010667   58.5492016   39.0328011   0.0001833   116.5156354   0.0010881   0.001668   116.7626733   0.0010856   
00651   117.6915349   0.0010693   0.0016545   117.6887453   0.0010667   58.7681254   39.1787503   0.000184   116.9507523   0.0010881   0.0016701   117.1999773   0.0010856   
00652   118.127612   0.0010693   0.0016567   118.1264565   0.0010667   58.9867271   39.3244848   0.0001846   117.3860459   0.0010881   0.0016723   117.6375091   0.0010856   
00653   118.5644062   0.0010693   0.0016589   118.5648409   0.0010667   59.2056511   39.470434   0.0001853   117.8211734   0.0010881   0.0016745   118.074813   0.0010856   
00654   118.9940131   0.0010694   0.0016611   118.99635   0.0010668   59.4212099   39.6141399   0.000186   118.2579601   0.0010881   0.0016767   118.5142324   0.0010856   
00655   119.38464   0.0010697   0.0016634   119.3903332   0.0010671   59.6173494   39.7448996   0.0001866   118.5671383   0.0010888   0.001679   118.8217075   0.0010862   
00656   119.7933021   0.0010698   0.0016656   119.8014816   0.0010672   59.8227186   39.8818124   0.0001873   119.0090067   0.0010888   0.0016812   119.2577391   0.0010863   
00657   120.1934645   0.0010701   0.0016678   120.2033575   0.0010675   60.0238361   40.0158908   0.0001879   119.3844688   0.0010892   0.0016834   119.6443918   0.0010866   
00658   120.5998176   0.0010703   0.0016701   120.6117681   0.0010677   60.227503   40.1516686   0.0001885   119.8276157   0.0010892   0.0016856   120.080252   0.0010866   
00659   121.0119726   0.0010704   0.0016723   121.0258527   0.0010678   60.4340878   40.2893919   0.0001892   120.2693617   0.0010892   0.0016879   120.5242688   0.0010866   
00660   121.4322627   0.0010705   0.0016744   121.4466529   0.0010679   60.6443095   40.4295397   0.0001898   120.6981976   0.0010892   0.00169   120.9547483   0.0010866   
00661   121.8590585   0.0010705   0.0016766   121.8748468   0.0010679   60.8581786   40.5721191   0.0001905   121.1332055   0.0010892   0.0016922   121.3934479   0.0010866   
00662   122.1895014   0.0010712   0.001679   122.2077554   0.0010686   61.0242866   40.6828578   0.000191   121.5995978   0.0010892   0.0016945   121.8607377   0.0010866   
00663   122.568796   0.0010715   0.0016812   122.5897255   0.0010689   61.2151948   40.8101299   0.0001916   122.0429424   0.0010892   0.0016968   122.3056833   0.0010866   
00664   123.0033782   0.0010715   0.0016834   123.025727   0.0010689   61.4329096   40.9552731   0.0001923   122.4771603   0.0010892   0.0016989   122.741777   0.0010866   
00665   123.3655931   0.0010719   0.0016856   123.3904248   0.0010693   61.6151276   41.0767518   0.0001929   122.9260119   0.0010892   0.0017012   123.193488   0.0010866   
00666   121.6251488   0.0010749   0.0016796   121.5434177   0.0010723   60.6959385   40.463959   0.00019   121.6187272   0.0010897   0.0016946   121.6717883   0.0010871   
00667   122.0495804   0.001075   0.0016819   121.9708426   0.0010724   60.9094394   40.6062929   0.0001907   122.0509587   0.0010897   0.0016968   122.1070805   0.0010871   
00668   122.4789428   0.001075   0.001684   122.4022313   0.0010724   61.1249077   40.7499385   0.0001913   122.4840466   0.0010897   0.001699   122.5425507   0.0010871   
00669   122.907592   0.0010751   0.0016862   122.8341205   0.0010724   61.3406618   40.8937745   0.000192   122.8756095   0.0010899   0.0017012   122.9537101   0.0010873   
00670   123.3335049   0.0010751   0.0016884   123.2618075   0.0010725   61.5541933   41.0361289   0.0001927   123.3130495   0.0010899   0.0017034   123.392671   0.0010873   
00671   123.7586138   0.0010752   0.0016906   123.6887009   0.0010726   61.7673059   41.1782039   0.0001933   123.6593414   0.0010903   0.0017056   123.7453379   0.0010877   
00672   124.1765931   0.0010753   0.0016928   124.10832   0.0010727   61.9768038   41.3178692   0.000194   124.0962817   0.0010903   0.0017078   124.1836973   0.0010877   
00673   124.5842722   0.0010755   0.0016951   124.5182402   0.0010729   62.1817286   41.4544857   0.0001946   124.4430523   0.0010908   0.00171   124.5338792   0.0010882   
00674   116.4954732   0.0011315   0.0017103   116.3894729   0.0011287   58.1218068   38.7478712   0.0001819   116.1815367   0.0011479   0.0017254   116.1227341   0.0011452   
00675   116.9311493   0.0011315   0.0017125   116.8268705   0.0011287   58.3402337   38.8934892   0.0001826   116.6169322   0.0011479   0.0017275   116.5603363   0.0011452   
00676   117.3660561   0.0011315   0.0017147   117.2635877   0.0011287   58.5583157   39.0388771   0.0001833   117.0522823   0.0011479   0.0017297   116.9978653   0.0011452   
00677   117.802768   0.0011315   0.0017169   117.701972   0.0011287   58.7772396   39.1848264   0.000184   117.4873673   0.0011479   0.0017319   117.4351693   0.0011452   
00678   118.2371892   0.0011315   0.0017191   118.1381957   0.0011287   58.995037   39.3300247   0.0001847   117.8985584   0.0011481   0.0017341   117.8477816   0.0011454   
00679   118.6707543   0.0011315   0.0017213   118.5735601   0.0011287   59.2124264   39.474951   0.0001853   118.3345451   0.0011481   0.0017363   118.2860297   0.0011454   
00680   119.1074853   0.0011315   0.0017235   119.0119444   0.0011287   59.4313504   39.6209002   0.000186   118.7696484   0.0011481   0.0017385   118.7233337   0.0011454   
00681   119.5442222   0.0011315   0.0017256   119.4503288   0.0011287   59.6502744   39.7668496   0.0001867   119.2047572   0.0011481   0.0017406   119.1606379   0.0011454   
00682   119.980965   0.0011315   0.0017278   119.8887132   0.0011287   59.8691983   39.9127989   0.0001874   119.6398711   0.0011481   0.0017428   119.597942   0.0011454   
00683   120.4153188   0.0011315   0.00173   120.3247984   0.0011288   60.086951   40.0579673   0.0001881   120.075676   0.0011481   0.001745   120.0359412   0.0011454   
00684   120.8520734   0.0011315   0.0017322   120.7631827   0.0011288   60.3058751   40.2039167   0.0001888   120.5108004   0.0011481   0.0017472   120.4732453   0.0011454   
00685   121.2792994   0.0011316   0.0017344   121.1923701   0.0011288   60.5203639   40.3469092   0.0001894   120.9487635   0.0011481   0.0017494   120.9133582   0.0011454   
00686   121.7152794   0.0011316   0.0017366   121.6300261   0.0011288   60.7389023   40.4926015   0.0001901   121.384126   0.0011481   0.0017516   121.350888   0.0011454   
00687   122.1477923   0.0011316   0.0017388   122.0644014   0.0011288   60.9557953   40.6371969   0.0001908   121.8203645   0.0011481   0.0017538   121.7880476   0.0011454   
00688   122.5787337   0.0011317   0.001741   122.4972425   0.0011289   61.1719211   40.7812807   0.0001915   122.2571753   0.0011481   0.0017559   122.2271124   0.0011454   
00689   123.004683   0.0011317   0.0017432   122.9252888   0.001129   61.3857243   40.9238162   0.0001921   122.6215841   0.0011484   0.0017581   122.6027343   0.0011457   
00690   123.4394059   0.0011317   0.0017454   123.3617393   0.001129   61.6036971   41.0691314   0.0001928   123.0567765   0.0011484   0.0017603   123.0401298   0.0011457   
00691   123.8624085   0.0011318   0.0017476   123.7867935   0.001129   61.816043   41.2106953   0.0001935   123.4932656   0.0011484   0.0017625   123.4782468   0.0011457   
00692   124.2856735   0.0011319   0.0017498   124.2120843   0.0011291   62.0284607   41.3523071   0.0001942   123.929861   0.0011484   0.0017647   123.9167277   0.0011457   
00693   124.6915946   0.001132   0.0017519   124.6189331   0.0011292   62.2316384   41.4877589   0.0001948   124.3580944   0.0011484   0.0017668   124.3455162   0.0011457   
00694   125.104246   0.0011321   0.0017541   125.0341005   0.0011293   62.4390527   41.6260351   0.0001954   124.7973433   0.0011484   0.0017691   124.7885323   0.0011457   
00695   125.5069438   0.0011323   0.0017564   125.439182   0.0011296   62.6410845   41.760723   0.0001961   125.2394098   0.0011484   0.0017713   125.2365642   0.0011457   
00696   125.912833   0.0011325   0.0017586   125.8477588   0.0011297   62.8451785   41.8967857   0.0001967   125.5764579   0.0011489   0.0017735   125.5822764   0.0011462   
00697   126.0791865   0.0011342   0.0017611   126.019318   0.0011314   62.9314515   41.954301   0.000197   126.0410983   0.0011489   0.0017759   126.0543441   0.0011462   
00698   126.4847377   0.0011343   0.0017633   126.425619   0.0011315   63.1343184   42.0895456   0.0001976   126.4781285   0.0011489   0.001778   126.4911251   0.0011462   
00699   126.66831   0.0011358   0.0017657   126.6265289   0.001133   63.2346489   42.1564326   0.0001979   126.7828535   0.0011492   0.0017799   126.8264286   0.0011465   
00700   127.0855391   0.0011359   0.0017679   127.0457343   0.0011331   63.4441465   42.2960976   0.0001986   127.2048979   0.0011493   0.0017821   127.2465121   0.0011466   
00701   127.437807   0.0011364   0.0017702   127.401401   0.0011336   63.621876   42.414584   0.0001991   127.5579891   0.0011498   0.0017844   127.6172272   0.0011471   
00702   127.7665965   0.0011371   0.0017725   127.7342665   0.0011343   63.7875018   42.5250012   0.0001997   127.8915476   0.0011504   0.0017867   127.971485   0.0011477   
00703   128.1362443   0.0011375   0.0017748   128.109993   0.0011347   63.9753944   42.6502629   0.0002002   128.3275681   0.0011504   0.0017889   128.4071848   0.0011477   
00704   128.3322494   0.001138   0.0017763   128.2984766   0.0011352   64.0692059   42.7128039   0.0002005   128.6485769   0.0011506   0.0017906   128.7021135   0.0011478   
00705   128.7053264   0.0011384   0.0017785   128.6749401   0.0011356   64.2575731   42.8383821   0.0002011   129.0760995   0.0011506   0.0017929   129.1396775   0.0011479   
00706   129.1039728   0.0011385   0.0017806   129.0744729   0.0011357   64.456932   42.971288   0.0002018   129.4615169   0.0011508   0.001795   129.5308838   0.0011481   
00707   129.1955705   0.0011391   0.0017816   129.1498342   0.0011363   64.4965734   42.9977156   0.0002019   129.6620023   0.0011508   0.0017958   129.6479552   0.0011481   
00708   129.5846807   0.0011393   0.0017839   129.5403629   0.0011365   64.6911779   43.1274519   0.0002025   129.9627263   0.0011515   0.001798   129.9694238   0.0011487   
00709   129.9359798   0.0011399   0.0017862   129.894666   0.0011371   64.8678069   43.2452046   0.000203   129.9411156   0.0011539   0.0018004   129.935276   0.0011512   
00710   130.1991077   0.0011409   0.0017886   130.1608209   0.0011381   65.0002561   43.333504   0.0002035   130.3280518   0.0011543   0.0018028   130.3359379   0.0011516   
00711   130.547946   0.0011414   0.0017908   130.511544   0.0011386   65.1753234   43.4502156   0.000204   130.6471294   0.001155   0.001805   130.6534279   0.0011522   
00712   130.8106792   0.0011425   0.0017932   130.7770241   0.0011397   65.3079206   43.5386137   0.0002044   130.5380622   0.0011579   0.0018074   130.5488778   0.0011551   
00713   131.175108   0.0011429   0.0017954   131.1432427   0.0011401   65.4906183   43.6604122   0.000205   130.9798211   0.001158   0.0018097   130.9923651   0.0011552   
00714   131.4955825   0.0011436   0.0017978   131.4649343   0.0011408   65.651391   43.767594   0.0002055   131.4452847   0.001158   0.001812   131.4571422   0.0011552   
00715   131.8618178   0.001144   0.0018   131.8328036   0.0011412   65.8353375   43.890225   0.0002061   131.8219355   0.0011583   0.0018143   131.8364418   0.0011556   
00716   124.684221   0.0011941   0.0018138   124.599236   0.0011911   62.2222187   41.4814791   0.0001948   125.0893591   0.0012062   0.0018282   125.0883103   0.0012033   
00717   125.1166392   0.0011941   0.001816   125.0333686   0.0011912   62.4390195   41.626013   0.0001954   125.5259611   0.0012062   0.0018304   125.5268949   0.0012033   
00718   125.5534678   0.0011941   0.0018182   125.4717529   0.0011912   62.6579435   41.7719623   0.0001961   125.961207   0.0012062   0.0018326   125.964199   0.0012033   
00719   125.987703   0.0011942   0.0018204   125.9076766   0.0011912   62.875638   41.917092   0.0001968   126.3971971   0.0012062   0.0018348   126.4021398   0.0012033   
00720   126.4245419   0.0011942   0.0018226   126.3460609   0.0011912   63.0945619   42.0630413   0.0001975   126.8324518   0.0012062   0.0018369   126.839444   0.0012033   
00721   126.8581581   0.0011942   0.0018248   126.7814497   0.0011912   63.3119897   42.2079931   0.0001982   127.2686235   0.0012062   0.0018391   127.277595   0.0012033   
00722   127.2116776   0.0011947   0.0018271   127.1404933   0.0011917   63.491484   42.327656   0.0001987   127.7278975   0.0012062   0.0018414   127.7383056   0.0012033   
00723   127.6380417   0.0011948   0.0018293   127.5688496   0.0011918   63.7054004   42.470267   0.0001994   128.1662225   0.0012062   0.0018436   128.1787115   0.0012033   
00724   128.0662815   0.0011948   0.0018315   127.9989681   0.0011918   63.9201621   42.6134414   0.0002001   128.6031045   0.0012062   0.0018458   128.6195475   0.0012033   
00725   128.4715768   0.001195   0.0018337   128.40654   0.001192   64.123626   42.749084   0.0002007   129.0479456   0.0012062   0.001848   129.0663178   0.0012033   
00726   128.709713   0.0011963   0.0018362   128.6512517   0.0011933   64.2458452   42.8305635   0.0002011   129.1760753   0.001208   0.0018505   129.2124201   0.0012051   
00727   129.1466211   0.0011963   0.0018384   129.089636   0.0011933   64.4647692   42.9765128   0.0002018   129.6113806   0.001208   0.0018527   129.6497241   0.0012051   
00728   129.5533812   0.0011965   0.0018406   129.4989198   0.0011935   64.669107   43.112738   0.0002024   129.9649475   0.0012085   0.0018549   129.9985584   0.0012056   
00729   129.990301   0.0011965   0.0018428   129.9373041   0.0011935   64.8880311   43.2586874   0.0002031   130.400265   0.0012085   0.0018571   130.4358623   0.0012056   
00730   130.427225   0.0011965   0.001845   130.3756884   0.0011935   65.1069551   43.4046367   0.0002038   130.8355858   0.0012085   0.0018593   130.8731665   0.0012056   
00731   130.8467758   0.0011966   0.0018472   130.7972136   0.0011936   65.3175087   43.5450058   0.0002045   131.2761173   0.0012085   0.0018615   131.3154164   0.0012056   
00732   131.2773551   0.0011966   0.0018494   131.2293199   0.0011936   65.5333585   43.6889056   0.0002051   131.7121656   0.0012085   0.0018637   131.755042   0.0012056   
00733   131.7088667   0.0011967   0.0018516   131.6621911   0.0011937   65.7495526   43.8330351   0.0002058   132.1485483   0.0012085   0.0018659   132.1934844   0.0012056   
00734   121.8455048   0.0012642   0.0018696   121.745544   0.0012611   60.79636   40.5309067   0.0001903   121.8222299   0.0012786   0.001884   121.7715987   0.0012756   
00735   122.1973356   0.0012648   0.0018719   122.1018253   0.0012617   60.974591   40.6497273   0.0001909   122.2806774   0.0012786   0.0018863   122.2339167   0.0012756   
00736   122.6333875   0.0012648   0.0018741   122.5395091   0.0012617   61.1931649   40.7954433   0.0001915   122.7160534   0.0012786   0.0018885   122.6714314   0.0012756   
00737   123.0691404   0.0012648   0.0018763   122.9768683   0.0012617   61.4115733   40.9410488   0.0001922   123.1515024   0.0012786   0.0018907   123.1090506   0.0012756   
00738   123.5059404   0.0012648   0.0018785   123.4152527   0.0012617   61.6304973   41.0869982   0.0001929   123.5866803   0.0012786   0.0018929   123.5463546   0.0012756   
00739   123.9427456   0.0012648   0.0018807   123.853637   0.0012617   61.8494214   41.2329476   0.0001936   124.0218629   0.0012786   0.0018951   123.9836588   0.0012756   
00740   124.378222   0.0012648   0.0018828   124.2907336   0.0012617   62.0677234   41.3784823   0.0001943   124.4574437   0.0012786   0.0018972   124.4213289   0.0012756   
00741   124.8150377   0.0012648   0.001885   124.7291179   0.0012617   62.2866474   41.5244316   0.000195   124.8926354   0.0012786   0.0018994   124.858633   0.0012756   
00742   125.2503136   0.0012648   0.0018872   125.1660087   0.0012617   62.5048207   41.6698805   0.0001957   125.3282723   0.0012786   0.0019016   125.2963924   0.0012756   
00743   125.6871397   0.0012648   0.0018894   125.604393   0.0012617   62.7237449   41.8158299   0.0001963   125.7634733   0.0012786   0.0019038   125.7336966   0.0012756   
00744   126.1173609   0.0012649   0.0018916   126.0361856   0.0012618   62.9392684   41.9595122   0.000197   126.20046   0.0012786   0.001906   126.1730918   0.0012756   
00745   126.5541971   0.0012649   0.0018938   126.47457   0.0012618   63.1581922   42.1054615   0.0001977   126.6356705   0.0012786   0.0019082   126.6103959   0.0012756   
00746   126.9876208   0.0012649   0.001896   126.9095575   0.0012618   63.3755034   42.2503356   0.0001984   127.0718749   0.0012786   0.0019103   127.0486867   0.0012756   
00747   127.4163354   0.0012649   0.0018982   127.3400614   0.0012618   63.5905   42.3936667   0.0001991   127.510091   0.0012786   0.0019125   127.4873886   0.0012756   
00748   127.853187   0.0012649   0.0019004   127.7784457   0.0012618   63.8094239   42.539616   0.0001997   127.9453149   0.0012786   0.0019147   127.9246927   0.0012756   
00749   128.2900433   0.0012649   0.0019026   128.2168301   0.0012618   64.028348   42.6855653   0.0002004   128.380543   0.0012786   0.0019169   128.3619969   0.0012756   
00750   128.4614088   0.0012667   0.0019052   128.3893666   0.0012636   64.1150779   42.7433852   0.0002007   128.8254459   0.001279   0.0019195   128.8140318   0.001276   
00751   128.8877008   0.0012667   0.0019074   128.8174357   0.0012636   64.3290766   42.8860511   0.0002014   129.2669799   0.001279   0.0019217   129.2496882   0.001276   
00752   129.3245707   0.0012667   0.0019096   129.2558201   0.0012636   64.5480006   43.0320004   0.000202   129.7022361   0.001279   0.0019239   129.6869922   0.001276   
00753   129.761445   0.0012667   0.0019118   129.6942044   0.0012636   64.7669247   43.1779498   0.0002027   130.1374963   0.001279   0.0019261   130.1242963   0.001276   
00754   130.198324   0.0012667   0.0019139   130.1325888   0.0012636   64.9858486   43.323899   0.0002034   130.5727606   0.001279   0.0019282   130.5616008   0.001276   
00755   130.6328647   0.0012668   0.0019161   130.5687287   0.0012636   65.2036573   43.4691049   0.0002041   130.9862859   0.0012791   0.0019304   130.9799489   0.0012761   
00756   131.0673064   0.0012668   0.0019183   131.00472   0.0012637   65.4213556   43.6142371   0.0002048   131.4220893   0.0012791   0.0019326   131.418135   0.0012761   
00757   131.4864043   0.0012668   0.0019205   131.4245591   0.0012637   65.6310617   43.7540411   0.0002054   131.8071455   0.0012793   0.0019348   131.8112474   0.0012763   
00758   131.3532005   0.0012701   0.001923   131.3124668   0.0012669   65.5760962   43.7173975   0.0002053   131.78544   0.0012811   0.0019366   131.8808263   0.0012781   
00759   131.6666401   0.0012707   0.0019252   131.6305892   0.0012675   65.7349874   43.823325   0.0002058   131.925231   0.0012832   0.0019394   132.0220576   0.0012802   
00760   132.0912151   0.0012707   0.0019274   132.0572001   0.0012676   65.9479409   43.9652939   0.0002064   132.3578638   0.0012832   0.0019416   132.4580546   0.0012802   
00761   132.3033478   0.0012721   0.0019299   132.2719856   0.001269   66.0545347   44.0363564   0.0002068   132.8291715   0.0012834   0.0019441   132.9169276   0.0012803   
00762   132.5729514   0.0012732   0.0019323   132.5437789   0.0012701   66.1898139   44.1265426   0.0002072   133.1837771   0.001284   0.0019465   133.280308   0.001281   
00763   132.9856138   0.0012734   0.0019345   132.9582089   0.0012702   66.396813   44.264542   0.0002078   133.5875306   0.0012842   0.0019487   133.6896116   0.0012811   
00764   133.3024293   0.001274   0.0019368   133.2772431   0.0012709   66.556372   44.3709147   0.0002083   133.949241   0.0012846   0.0019509   134.0472547   0.0012815   
00765   123.8030073   0.0013396   0.0019541   123.6826173   0.0013361   61.7641397   41.1760931   0.0001933   124.4465552   0.0013501   0.0019683   124.4954578   0.0013468   
00766   124.238044   0.0013396   0.0019563   124.1195408   0.0013361   61.9823242   41.3215494   0.000194   124.8820371   0.0013501   0.0019705   124.9329115   0.0013468   
00767   124.6746462   0.0013396   0.0019585   124.5579251   0.0013361   62.201248   41.4674986   0.0001947   125.317053   0.0013501   0.0019727   125.3702156   0.0013468   
00768   125.0571431   0.0013399   0.0019608   124.9447911   0.0013365   62.3944493   41.5962996   0.0001953   125.7636569   0.0013501   0.001975   125.8268478   0.0013468   
00769   125.487957   0.0013399   0.001963   125.3776151   0.0013365   62.610564   41.740376   0.000196   126.2001507   0.0013501   0.0019771   126.2661666   0.0013468   
00770   125.8890377   0.0013402   0.0019652   125.7821994   0.0013367   62.8126091   41.8750727   0.0001966   126.6108813   0.0013502   0.0019794   126.6854897   0.0013469   
00771   126.2780933   0.0013405   0.0019675   126.1748943   0.001337   63.0086819   42.0057879   0.0001972   126.9468763   0.0013508   0.0019816   127.014254   0.0013475   
00772   126.6988366   0.0013406   0.0019697   126.5977672   0.0013371   63.2198396   42.1465597   0.0001979   127.3471797   0.001351   0.0019838   127.4201757   0.0013477   
00773   127.1069604   0.0013407   0.0019719   127.0086327   0.0013373   63.4250232   42.2833488   0.0001985   127.7749103   0.0013511   0.0019861   127.8551353   0.0013478   
00774   127.5143325   0.0013409   0.0019741   127.4189753   0.0013375   63.6298903   42.4199269   0.0001992   128.2186316   0.0013511   0.0019883   128.3005604   0.0013478   
00775   127.9455611   0.001341   0.0019763   127.8520641   0.0013375   63.8461437   42.5640958   0.0001999   128.6554702   0.0013511   0.0019905   128.7388184   0.0013478   
00776   128.3799064   0.001341   0.0019785   128.2882033   0.0013375   64.0639431   42.7092954   0.0002005   129.0739562   0.0013512   0.0019927   129.1570896   0.0013478   
00777   128.7654004   0.0013413   0.0019808   128.6770122   0.0013379   64.2581089   42.8387393   0.0002011   129.0488154   0.0013535   0.0019949   129.1413282   0.0013502   
00778   129.1710651   0.0013415   0.001983   129.0855367   0.0013381   64.4621936   42.9747957   0.0002018   129.4924646   0.0013535   0.0019972   129.5879283   0.0013502   
00779   129.5328782   0.001342   0.0019853   129.451405   0.0013385   64.6448301   43.0965534   0.0002024   129.9482781   0.0013535   0.0019994   130.0481465   0.0013502   
00780   129.9683214   0.001342   0.0019875   129.8885452   0.0013385   64.8631289   43.2420859   0.000203   130.3395699   0.0013537   0.0020016   130.4476516   0.0013504   
00781   130.4014126   0.001342   0.0019897   130.3234442   0.0013386   65.0803043   43.3868696   0.0002037   130.7761357   0.0013537   0.0020038   130.8854448   0.0013504   
00782   130.8074657   0.0013422   0.0019919   130.7315755   0.0013388   65.2840435   43.5226956   0.0002044   131.2186897   0.0013537   0.002006   131.3304186   0.0013504   
00783   131.2143447   0.0013424   0.0019942   131.1405857   0.0013389   65.4882081   43.6588054   0.000205   131.6610465   0.0013537   0.0020083   131.7736895   0.0013504   
00784   131.6450603   0.0013424   0.0019964   131.5731604   0.001339   65.7042144   43.8028096   0.0002057   132.0973571   0.0013537   0.0020104   132.2113458   0.0013504   
00785   123.6643289   0.0013656   0.0019794   123.5275708   0.0013621   61.6899098   41.1266065   0.0001931   124.1875858   0.001373   0.0019897   124.1954255   0.0013695   
00786   124.1009285   0.0013656   0.0019816   123.9659551   0.0013621   61.9088337   41.2725558   0.0001938   124.6226055   0.001373   0.0019918   124.6327296   0.0013695   
00787   124.5228495   0.0013657   0.0019838   124.3923085   0.0013622   62.12137   41.4142466   0.0001945   125.0564339   0.001373   0.001994   125.0714565   0.0013695   
00788   124.9180003   0.0013657   0.0019858   124.7873108   0.0013622   62.3185155   41.545677   0.0001951   125.4735622   0.001373   0.0019961   125.4866757   0.0013695   
00789   125.3516076   0.0013657   0.0019879   125.2228079   0.0013622   62.5359932   41.6906621   0.0001958   125.9059326   0.001373   0.0019983   125.9215151   0.0013695   
00790   125.7856888   0.0013657   0.0019901   125.6577846   0.0013622   62.7533214   41.8355476   0.0001964   126.3405238   0.001373   0.0020005   126.3581831   0.0013695   
00791   126.220337   0.0013658   0.0019923   126.0944112   0.0013622   62.9713449   41.9808966   0.0001971   126.7749017   0.001373   0.0020026   126.7947963   0.0013695   
00792   126.6250637   0.001366   0.0019945   126.5020004   0.0013624   63.1747086   42.1164724   0.0001978   127.2255151   0.001373   0.0020049   127.2528808   0.0013695   
00793   127.0590554   0.001366   0.0019967   126.9376916   0.0013624   63.3923664   42.2615776   0.0001984   127.6582995   0.001373   0.0020071   127.6878562   0.0013695   
00794   127.4936627   0.001366   0.0019989   127.3742012   0.0013624   63.6103741   42.4069161   0.0001991   128.0943407   0.001373   0.0020093   128.1251786   0.0013695   
00795   127.9280897   0.001366   0.0020011   127.8103652   0.0013624   63.8282608   42.5521738   0.0001998   128.5271579   0.001373   0.0020114   128.5601839   0.0013695   
00796   128.334012   0.0013662   0.0020033   128.2175656   0.0013626   64.0315182   42.6876788   0.0002004   128.9690664   0.001373   0.0020137   129.0054407   0.0013695   
00797   128.768168   0.0013662   0.0020055   128.653375   0.0013626   64.2491339   42.832756   0.0002011   129.4010154   0.001373   0.0020158   129.4396337   0.0013695   
00798   129.2036226   0.0013662   0.0020077   129.0908821   0.0013626   64.4676174   42.9784116   0.0002018   129.8358738   0.001373   0.002018   129.8767433   0.0013695   
00799   129.6279973   0.0013662   0.0020098   129.5171913   0.0013626   64.6807468   43.1204979   0.0002025   130.2682308   0.001373   0.0020202   130.3117673   0.0013695   
00800   130.0568755   0.0013662   0.002012   129.9481089   0.0013627   64.8958789   43.2639193   0.0002032   130.6557348   0.0013732   0.0020224   130.7088716   0.0013697   
00801   130.4757017   0.0013664   0.0020143   130.3693044   0.0013628   65.1063254   43.404217   0.0002038   131.0064619   0.0013737   0.0020246   131.0800108   0.0013702   
00802   130.9075128   0.0013664   0.0020164   130.8028439   0.0013628   65.322824   43.5485494   0.0002045   131.4430775   0.0013737   0.0020268   131.5187947   0.0013702   
00803   131.3355843   0.0013664   0.0020186   131.2325618   0.0013629   65.5372805   43.6915204   0.0002052   131.8757901   0.0013737   0.002029   131.953823   0.0013702   
00804   131.6916103   0.0013669   0.0020209   131.592913   0.0013634   65.7170714   43.8113809   0.0002057   132.2028279   0.0013747   0.0020316   132.2530562   0.0013712   
00805   132.074123   0.0013673   0.0020232   131.9781136   0.0013637   65.9092926   43.9395284   0.0002063   132.6285592   0.0013748   0.0020339   132.6777377   0.0013713   
00806   132.3804902   0.0013681   0.0020255   132.2880691   0.0013645   66.0646368   44.0430912   0.0002068   133.0952467   0.0013748   0.0020362   133.1512471   0.0013713   
00807   132.8078751   0.0013681   0.0020277   132.7172128   0.0013646   66.2789328   44.1859552   0.0002075   133.5322576   0.0013748   0.0020384   133.590451   0.0013713   
00808   124.2407819   0.0014272   0.0020437   124.1086575   0.0014235   61.9788655   41.3192437   0.000194   124.8922189   0.0014342   0.0020545   124.9587566   0.0014306   
00809   124.6765619   0.0014272   0.0020459   124.5462551   0.0014236   62.1973752   41.4649168   0.0001947   125.3275404   0.0014342   0.0020567   125.396363   0.0014306   
00810   125.1081786   0.0014273   0.0020481   124.980161   0.0014236   62.4139763   41.6093175   0.0001954   125.7639435   0.0014342   0.0020588   125.8350296   0.0014306   
00811   125.5448003   0.0014273   0.0020503   125.4185453   0.0014236   62.6329004   41.7552669   0.0001961   126.199017   0.0014342   0.002061   126.2723336   0.0014306   
00812   125.9814284   0.0014273   0.0020525   125.8569297   0.0014236   62.8518243   41.9012162   0.0001968   126.6340955   0.0014342   0.0020632   126.7096379   0.0014306   
00813   126.4180628   0.0014273   0.0020547   126.295314   0.0014236   63.0707484   42.0471656   0.0001974   127.0691793   0.0014342   0.0020654   127.1469417   0.0014306   
00814   126.8537669   0.0014273   0.0020569   126.7329082   0.0014236   63.2893047   42.1928698   0.0001981   127.5041033   0.0014342   0.0020676   127.5842651   0.0014306   
00815   127.2883605   0.0014273   0.0020591   127.1692763   0.0014236   63.5072607   42.3381738   0.0001988   127.9397928   0.0014342   0.0020698   128.0223693   0.0014306   
00816   127.7240996   0.0014273   0.0020612   127.6067819   0.0014236   63.7257651   42.4838434   0.0001995   128.375337   0.0014342   0.0020719   128.4599452   0.0014306   
00817   128.1564677   0.0014273   0.0020634   128.040917   0.0014236   63.9423951   42.6282634   0.0002002   128.8128134   0.0014342   0.0020741   128.8986847   0.0014306   
00818   128.583198   0.0014274   0.0020656   128.4706401   0.0014237   64.1567392   42.7711595   0.0002008   129.2468507   0.0014342   0.0020763   129.3364691   0.0014306   
00819   129.0198723   0.0014274   0.0020678   128.9090244   0.0014237   64.3756634   42.9171089   0.0002015   129.6819665   0.0014342   0.0020785   129.7737731   0.0014306   
00820   129.4565526   0.0014274   0.00207   129.3474088   0.0014237   64.5945872   43.0630582   0.0002022   130.1170875   0.0014342   0.0020807   130.2110772   0.0014306   
00821   129.8887027   0.0014274   0.0020722   129.7814309   0.0014237   64.8114152   43.2076102   0.0002029   130.5534984   0.0014342   0.0020829   130.6499182   0.0014306   
00822   130.3222169   0.0014274   0.0020744   130.2166741   0.0014237   65.0288293   43.3525528   0.0002036   130.945994   0.0014344   0.0020851   131.0479275   0.0014308   
00823   130.7534852   0.0014275   0.0020766   130.6496074   0.0014238   65.2448826   43.4965884   0.0002042   131.3295874   0.0014347   0.0020872   131.432579   0.0014311   
00824   131.1901896   0.0014275   0.0020788   131.0879917   0.0014238   65.4638064   43.6425376   0.0002049   131.7647227   0.0014347   0.0020894   131.869883   0.0014311   
00825   131.4975634   0.0014283   0.0020812   131.4027602   0.0014246   65.6213362   43.7475575   0.0002054   132.2358006   0.0014347   0.0020918   132.3432286   0.0014311   
00826   131.9298353   0.0014283   0.0020834   131.8370267   0.0014246   65.8382114   43.8921409   0.0002061   132.6717808   0.0014347   0.002094   132.7816474   0.0014311   
00827   132.3470883   0.0014284   0.0020856   132.2554984   0.0014247   66.0469406   44.0312938   0.0002068   133.0792389   0.0014349   0.0020962   133.1911194   0.0014313   
00828   123.8569333   0.0014869   0.0021014   123.7278193   0.0014831   61.7890071   41.1926714   0.0001934   124.5488951   0.0014944   0.0021129   124.6606363   0.0014907   
00829   124.2918384   0.001487   0.0021036   124.1645885   0.0014831   62.0070656   41.3380438   0.0001941   124.9859746   0.0014944   0.0021151   125.0994554   0.0014907   
00830   124.7284765   0.001487   0.0021058   124.6029729   0.0014831   62.2259896   41.4839931   0.0001948   125.4210589   0.0014944   0.0021173   125.5367595   0.0014907   
00831   125.1546237   0.001487   0.002108   125.0316939   0.0014832   62.4399687   41.6266458   0.0001955   125.8620474   0.0014944   0.0021195   125.9794674   0.0014907   
00832   125.5903742   0.001487   0.0021102   125.469251   0.0014832   62.6584458   41.7722972   0.0001961   126.298822   0.0014944   0.0021217   126.417006   0.0014907   
00833   125.9741411   0.0014874   0.0021125   125.8564416   0.0014836   62.8521859   41.9014573   0.0001967   126.6622316   0.0014949   0.0021241   126.7742237   0.0014912   
00834   126.4108147   0.0014874   0.0021147   126.294826   0.0014836   63.07111   42.0474066   0.0001974   127.0973599   0.0014949   0.0021263   127.2115279   0.0014912   
00835   126.8474944   0.0014874   0.0021168   126.7332103   0.0014836   63.2900338   42.1933559   0.0001981   127.5324925   0.0014949   0.0021284   127.6488318   0.0014912   
00836   127.2670597   0.0014875   0.0021191   127.1545859   0.0014837   63.4999434   42.3332956   0.0001988   127.9779554   0.0014949   0.0021307   128.0973747   0.0014912   
00837   127.7037528   0.0014875   0.0021213   127.5929702   0.0014837   63.7188674   42.4792449   0.0001995   128.4130995   0.0014949   0.0021329   128.5346786   0.0014912   
00838   128.1325927   0.0014875   0.0021234   128.0244794   0.0014837   63.9341548   42.6227699   0.0002001   128.8457713   0.0014949   0.002135   128.9695374   0.0014912   
00839   128.5684038   0.0014875   0.0021256   128.4620339   0.0014837   64.1526969   42.7684646   0.0002008   129.2824609   0.0014949   0.0021372   129.4070797   0.0014912   
00840   128.9847539   0.0014876   0.0021278   128.8806311   0.0014838   64.362368   42.9082453   0.0002015   129.5945256   0.0014956   0.0021395   129.7224154   0.0014919   
00841   129.1622493   0.0014893   0.0021304   129.069569   0.0014855   64.4574726   42.9716484   0.0002018   130.066201   0.0014956   0.0021419   130.2108183   0.0014919   
00842   129.5914218   0.0014893   0.0021326   129.5016645   0.0014855   64.6732859   43.1155239   0.0002024   130.4991675   0.0014956   0.002144   130.6458093   0.0014919   
00843   130.0281698   0.0014893   0.0021348   129.9400488   0.0014855   64.8922101   43.2614734   0.0002031   130.9343421   0.0014956   0.0021462   131.0831132   0.0014919   
00844   129.9384798   0.0014916   0.0021367   129.8506579   0.0014878   64.8451917   43.2301278   0.000203   130.8498947   0.0014981   0.0021483   131.0027549   0.0014944   
00845   130.3742088   0.0014916   0.0021388   130.2882709   0.0014878   65.0637303   43.3758202   0.0002037   131.2848689   0.0014981   0.0021505   131.4398234   0.0014944   
00846   130.8046157   0.0014917   0.002141   130.7205191   0.0014879   65.2796267   43.5197512   0.0002044   131.7205486   0.0014981   0.0021526   131.8791154   0.0014944   
00847   131.2113293   0.0014918   0.0021432   131.1300608   0.001488   65.483627   43.6557513   0.000205   132.0687667   0.0014985   0.0021548   132.232521   0.0014948   
00848   131.6269455   0.001492   0.0021455   131.5477682   0.0014881   65.6922659   43.794844   0.0002056   132.5102617   0.0014985   0.002157   132.6769128   0.0014948   
00849   132.0444455   0.0014921   0.0021477   131.9665769   0.0014883   65.9015618   43.9343745   0.0002063   132.9070848   0.0014987   0.0021592   133.0842325   0.001495   
00850   132.4594991   0.0014922   0.0021499   132.3839836   0.0014884   66.1104103   44.0736069   0.000207   133.3281667   0.0014988   0.0021615   133.5031861   0.0014951   
00851   132.7368926   0.0014933   0.0021523   132.6635909   0.0014894   66.2500827   44.1667218   0.0002074   133.7080666   0.0014993   0.0021639   133.9001066   0.0014956   
00852   127.5934929   0.0015298   0.002163   127.4970622   0.0015259   63.6690957   42.4460638   0.0001993   128.479856   0.0015366   0.0021747   128.5522638   0.0015328   
00853   128.0270614   0.0015298   0.0021652   127.9325059   0.0015259   63.886551   42.591034   0.0002   128.9158463   0.0015366   0.0021768   128.9905593   0.0015328   
00854   128.4622951   0.0015298   0.0021674   128.3694663   0.0015259   64.1047662   42.7365108   0.0002007   129.3514629   0.0015366   0.002179   129.4282758   0.0015328   
00855   128.8931165   0.0015299   0.0021696   128.8023051   0.001526   64.3209244   42.8806163   0.0002014   129.7883653   0.0015366   0.0021812   129.8672587   0.0015328   
00856   129.3281081   0.0015299   0.0021718   129.2390398   0.001526   64.5390221   43.0260148   0.000202   130.2244204   0.0015366   0.0021834   130.3040644   0.0015328   
00857   129.7602502   0.0015299   0.0021739   129.6730923   0.001526   64.7557826   43.1705217   0.0002027   130.6609289   0.0015366   0.0021856   130.7426914   0.0015328   
00858   130.1919577   0.0015299   0.0021761   130.1066216   0.001526   64.9722943   43.3148629   0.0002034   131.0975529   0.0015366   0.0021878   131.1812872   0.0015328   
00859   130.6019029   0.0015301   0.0021784   130.5193847   0.0015262   65.1784229   43.4522819   0.000204   131.480985   0.0015369   0.00219   131.5723514   0.0015331   
00860   131.0352768   0.0015301   0.0021806   130.9545281   0.0015262   65.3957235   43.597149   0.0002047   131.9171597   0.0015369   0.0021922   132.010656   0.0015331   
00861   131.4645859   0.0015302   0.0021828   131.3858106   0.0015263   65.611097   43.7407313   0.0002054   132.3546899   0.0015369   0.0021944   132.4498884   0.0015331   
00862   131.8851593   0.0015303   0.002185   131.8087188   0.0015264   65.8222961   43.8815307   0.0002061   132.6066659   0.0015377   0.0021966   132.7266338   0.0015339   
00863   126.7068329   0.0015655   0.0021941   126.6572127   0.0015614   63.2512816   42.1675211   0.000198   127.1596116   0.0015785   0.0022098   127.3047455   0.0015745   
00864   127.1333393   0.0015656   0.0021963   127.0857292   0.0015615   63.4652883   42.3101922   0.0001987   127.5981107   0.0015786   0.0022121   127.7385446   0.0015745   
00865   127.5654946   0.0015656   0.0021985   127.519008   0.0015615   63.6817522   42.4545015   0.0001994   128.0311667   0.0015786   0.0022142   128.1734765   0.0015745   
00866   127.9860687   0.0015656   0.0022006   127.9410357   0.0015615   63.8924999   42.5949999   0.0002   128.4623697   0.0015786   0.0022164   128.6059119   0.0015745   
00867   128.4177616   0.0015657   0.0022028   128.3746634   0.0015616   64.109073   42.739382   0.0002007   128.8997786   0.0015786   0.0022186   129.0437621   0.0015745   
00868   128.7562858   0.0015663   0.0022052   128.7168812   0.0015622   64.2798384   42.8532256   0.0002012   129.120734   0.0015797   0.0022209   129.3001832   0.0015757   
00869   129.1908999   0.0015663   0.0022074   129.1532326   0.0015622   64.4977737   42.9985158   0.0002019   129.5556865   0.0015797   0.0022231   129.7376152   0.0015757   
00870   129.6269053   0.0015663   0.0022096   129.5907836   0.0015622   64.7162698   43.1441799   0.0002026   129.9902371   0.0015797   0.0022253   130.1742348   0.0015757   
00871   130.0434424   0.0015664   0.0022117   130.008694   0.0015623   64.9249231   43.2832821   0.0002032   130.4248724   0.0015797   0.0022275   130.6096111   0.0015757   
00872   130.4764722   0.0015664   0.0022139   130.4435597   0.0015623   65.1420616   43.4280411   0.0002039   130.860529   0.0015797   0.0022297   131.0477169   0.0015757   
00873   130.9003556   0.0015665   0.0022161   130.869512   0.0015624   65.3548107   43.5698738   0.0002046   131.3023787   0.0015797   0.0022319   131.4894808   0.0015757   
00874   131.3144344   0.0015666   0.0022183   131.2862342   0.0015625   65.5630456   43.7086971   0.0002052   131.7360078   0.0015797   0.0022341   131.9260695   0.0015757   
00875   131.7370107   0.0015667   0.0022206   131.7106696   0.0015626   65.7750084   43.8500056   0.0002059   132.0822424   0.0015802   0.0022363   132.2749422   0.0015762   
00876   122.7718548   0.0016283   0.0022371   122.7054876   0.0016241   61.2768864   40.8512576   0.0001918   122.7361631   0.0016439   0.0022531   122.9150437   0.0016398   
00877   123.2051954   0.0016283   0.0022393   123.1406917   0.0016241   61.4942257   40.9961505   0.0001925   123.1720128   0.0016439   0.0022553   123.353485   0.0016398   
00878   123.6418742   0.0016283   0.0022415   123.579076   0.0016241   61.7131498   41.1420999   0.0001932   123.6070904   0.0016439   0.0022575   123.7907891   0.0016398   
00879   124.0765638   0.0016284   0.0022437   124.0155862   0.0016242   61.9311268   41.2874179   0.0001939   124.0427338   0.0016439   0.0022596   124.2286726   0.0016398   
00880   124.5108145   0.0016284   0.0022459   124.4516112   0.0016242   62.1488887   41.4325925   0.0001946   124.4785545   0.0016439   0.0022618   124.6666963   0.0016398   
00881   124.9475118   0.0016284   0.0022481   124.8899955   0.0016242   62.3678124   41.5785416   0.0001952   124.9136481   0.0016439   0.002264   125.1040003   0.0016398   
00882   125.3842151   0.0016284   0.0022502   125.3283799   0.0016242   62.5867365   41.724491   0.0001959   125.3487466   0.0016439   0.0022662   125.5413045   0.0016398   
00883   125.8041811   0.0016285   0.0022525   125.7504688   0.0016243   62.7974825   41.8649883   0.0001966   125.788661   0.0016439   0.0022684   125.9836364   0.0016398   
00884   126.2408975   0.0016285   0.0022546   126.1888531   0.0016243   63.0164066   42.0109377   0.0001973   126.2237709   0.0016439   0.0022706   126.4209404   0.0016398   
00885   126.6776196   0.0016285   0.0022568   126.6272375   0.0016243   63.2353307   42.1568871   0.000198   126.6588856   0.0016439   0.0022728   126.8582444   0.0016398   
00886   127.1143473   0.0016285   0.002259   127.0656218   0.0016243   63.4542546   42.3028364   0.0001986   127.0940056   0.0016439   0.0022749   127.2955485   0.0016398   
00887   127.547249   0.0016285   0.0022612   127.5003656   0.0016243   63.6713309   42.4475539   0.0001993   127.5302443   0.0016439   0.0022771   127.733985   0.0016398   
00888   127.9827885   0.0016285   0.0022634   127.9375879   0.0016243   63.8896636   42.5931091   0.0002   127.9657301   0.0016439   0.0022793   128.171655   0.0016398   
00889   128.4178131   0.0016285   0.0022656   128.3743398   0.0016243   64.107767   42.7385113   0.0002007   128.4013706   0.0016439   0.0022815   128.6094566   0.0016398   
00890   128.8525665   0.0016285   0.0022678   128.8108303   0.0016243   64.3257328   42.8838219   0.0002014   128.8370963   0.0016439   0.0022837   129.0473487   0.0016398   
00891   129.2831455   0.0016286   0.00227   129.2432163   0.0016244   64.5416234   43.0277489   0.000202   129.27337   0.0016439   0.0022859   129.4876474   0.0016398   
00892   129.7042919   0.0016287   0.0022722   129.6663172   0.0016245   64.7528737   43.1685825   0.0002027   129.7135426   0.0016439   0.0022881   129.929211   0.0016398   
00893   130.1323556   0.0016287   0.0022744   130.0961846   0.0016245   64.9675798   43.3117198   0.0002034   130.1506985   0.0016439   0.0022903   130.3703404   0.0016398   
00894   130.5655753   0.0016288   0.0022766   130.5310863   0.0016245   65.1847437   43.4564958   0.0002041   130.5871181   0.0016439   0.0022925   130.8087774   0.0016398   
00895   130.9982905   0.0016288   0.0022788   130.9655378   0.0016246   65.4016986   43.6011324   0.0002047   131.0095434   0.001644   0.0022947   131.2299942   0.0016398   
00896   131.4311647   0.0016288   0.002281   131.400084   0.0016246   65.6187279   43.7458186   0.0002054   131.4451998   0.001644   0.0022968   131.6676607   0.0016398   
00897   131.8653788   0.0016288   0.0022832   131.8358915   0.0016246   65.8363591   43.8909061   0.0002061   131.8810319   0.001644   0.002299   132.1070789   0.0016398   
00898   132.2875275   0.0016289   0.0022853   132.2591703   0.0016247   66.0478381   44.0318921   0.0002068   132.3133503   0.001644   0.0023012   132.5403495   0.0016398   
00899   132.5906241   0.0016297   0.0022877   132.564487   0.0016255   66.2005169   44.1336779   0.0002072   132.820025   0.001644   0.0023037   133.0249996   0.0016398   
00900   133.019757   0.0016298   0.00229   132.99536   0.0016256   66.4157657   44.2771771   0.0002079   133.2576868   0.001644   0.0023059   133.4643458   0.0016398   
00901   125.3949598   0.0016822   0.002304   125.3168248   0.0016779   62.5801204   41.7200802   0.0001959   125.8619477   0.0016962   0.0023207   125.9622597   0.0016919   
00902   125.831669   0.0016822   0.0023062   125.755209   0.0016779   62.7990444   41.8660296   0.0001966   126.2970205   0.0016962   0.0023229   126.399564   0.0016919   
00903   126.2541914   0.0016823   0.0023084   126.1797976   0.001678   63.0111163   42.0074109   0.0001973   126.7445391   0.0016962   0.0023251   126.8421921   0.0016919   
00904   126.6859662   0.0016824   0.0023106   126.6134936   0.001678   63.2276617   42.1517745   0.0001979   127.1791946   0.0016962   0.0023273   127.2794302   0.0016919   
00905   127.1205213   0.0016824   0.0023128   127.0497826   0.001678   63.4455519   42.2970346   0.0001986   127.6150864   0.0016962   0.0023295   127.7174818   0.0016919   
00906   127.5186712   0.0016826   0.002315   127.4507216   0.0016783   63.6457473   42.4304982   0.0001992   127.8169022   0.0016974   0.0023318   127.9483813   0.0016931   
00907   127.9554184   0.0016826   0.0023172   127.8891059   0.0016783   63.8646715   42.5764477   0.0001999   128.2520273   0.0016974   0.0023339   128.3856851   0.0016931   
00908   128.3844569   0.0016827   0.0023194   128.320043   0.0016783   64.0798878   42.7199252   0.0002006   128.6933275   0.0016974   0.0023361   128.8262498   0.0016931   
00909   128.8110097   0.0016827   0.0023216   128.7485307   0.0016784   64.2939171   42.8626114   0.0002013   129.1310217   0.0016974   0.0023383   129.2664094   0.0016931   
00910   129.2427104   0.0016828   0.0023238   129.1820942   0.0016784   64.5104324   43.0069549   0.0002019   129.554685   0.0016974   0.0023405   129.6897938   0.0016932   
00911   129.679482   0.0016828   0.002326   129.6204785   0.0016784   64.7293565   43.1529043   0.0002026   129.9898314   0.0016974   0.0023427   130.1270979   0.0016932   
00912   130.1129389   0.0016828   0.0023282   130.0556748   0.0016785   64.94671   43.2978066   0.0002033   130.4260025   0.0016974   0.0023449   130.5653696   0.0016932   
00913   130.4853364   0.0016832   0.0023305   130.4297704   0.0016789   65.1336647   43.4224431   0.0002039   130.7819018   0.001698   0.0023472   130.8982897   0.0016937   
00914   130.9095825   0.0016833   0.0023327   130.8562143   0.001679   65.3465898   43.5643932   0.0002046   131.2188193   0.001698   0.0023494   131.3381864   0.0016937   
00915   131.3393223   0.0016833   0.0023349   131.2878035   0.001679   65.5621283   43.7080855   0.0002052   131.65429   0.001698   0.0023516   131.7749361   0.0016937   
00916   131.7739238   0.0016833   0.0023371   131.724011   0.001679   65.7799613   43.8533076   0.0002059   132.0900877   0.001698   0.0023538   132.2130195   0.0016937   
00917   132.2045555   0.0016834   0.0023393   132.1565405   0.001679   65.9959679   43.997312   0.0002066   132.5242032   0.001698   0.002356   132.64965   0.0016937   
00918   132.6348035   0.0016834   0.0023415   132.5883827   0.0016791   66.2116927   44.1411285   0.0002073   132.9042228   0.0016983   0.0023581   133.029955   0.001694   
00919   133.0586952   0.0016835   0.0023437   133.0136991   0.0016792   66.4241945   44.2827963   0.0002079   133.3433913   0.0016983   0.0023603   133.4710385   0.001694   
00920   133.4224643   0.0016839   0.0023459   133.3769386   0.0016795   66.6064797   44.4043198   0.0002085   133.7856275   0.0016983   0.0023626   133.912062   0.001694   
00921   133.7547203   0.0016845   0.0023482   133.7149347   0.0016802   66.7750975   44.5167317   0.000209   134.0421088   0.0016993   0.0023649   134.2047434   0.0016951   
00922   134.1549819   0.0016847   0.0023505   134.1177811   0.0016804   66.9767094   44.6511396   0.0002097   134.4806807   0.0016994   0.0023672   134.6322012   0.0016952   
00923   124.6483384   0.0017503   0.0023679   124.5262015   0.0017457   62.1872195   41.4581463   0.0001947   124.5670307   0.001767   0.0023848   124.7249486   0.0017625   
00924   125.0803133   0.0017503   0.0023701   124.960047   0.0017458   62.4039157   41.6026104   0.0001954   125.0032527   0.001767   0.002387   125.1636929   0.0017625   
00925   125.5044544   0.0017504   0.0023723   125.3866336   0.0017458   62.6168905   41.7445937   0.000196   125.4408423   0.001767   0.0023892   125.6054536   0.0017625   
00926   125.9375583   0.0017504   0.0023745   125.8217326   0.0017458   62.8341954   41.8894636   0.0001967   125.8768898   0.001767   0.0023914   126.0433307   0.0017625   
00927   126.3657393   0.0017504   0.0023767   126.2521303   0.0017459   63.0490949   42.0327299   0.0001974   126.3164102   0.001767   0.0023936   126.478543   0.0017625   
00928   126.8013264   0.0017505   0.0023789   126.6895648   0.0017459   63.2675364   42.1783576   0.0001981   126.7516356   0.001767   0.0023958   126.9161337   0.0017625   
00929   127.2379255   0.0017505   0.0023811   127.1279491   0.0017459   63.4864604   42.3243069   0.0001987   127.1865856   0.001767   0.002398   127.3534378   0.0017625   
00930   127.6722285   0.0017505   0.0023832   127.5641694   0.0017459   63.7042803   42.4695202   0.0001994   127.6233052   0.001767   0.0024001   127.7896935   0.0017625   
00931   128.1064926   0.0017505   0.0023854   128.0003077   0.0017459   63.9220712   42.6147141   0.0002001   128.0593809   0.001767   0.0024023   128.2270703   0.0017625   
00932   128.541488   0.0017505   0.0023876   128.4372151   0.0017459   64.140252   42.760168   0.0002008   128.4947933   0.001767   0.0024045   128.6648221   0.0017625   
00933   128.9753097   0.0017505   0.0023898   128.8729772   0.001746   64.3578926   42.9052617   0.0002015   128.9304657   0.001767   0.0024067   129.1030406   0.0017625   
00934   129.3291573   0.001751   0.0023921   129.231501   0.0017465   64.5368643   43.0245762   0.000202   129.3164607   0.0017674   0.002409   129.4755522   0.0017629   
00935   129.7429251   0.0017512   0.0023944   129.6479224   0.0017466   64.7450789   43.1633859   0.0002027   129.757483   0.0017674   0.0024112   129.9204206   0.0017629   
00936   130.0073311   0.0017523   0.0023968   129.9184239   0.0017477   64.8800958   43.2533972   0.0002031   129.3784965   0.0017718   0.0024137   129.5185572   0.0017673   
00937   130.4440102   0.0017523   0.002399   130.3568082   0.0017477   65.09902   43.3993467   0.0002038   129.8135274   0.0017718   0.0024158   129.9558614   0.0017673   
00938   129.9619058   0.0017584   0.0024026   129.8639477   0.0017538   64.8535424   43.2356949   0.000203   129.205535   0.0017785   0.0024195   129.3408218   0.001774   
00939   126.9854775   0.0017809   0.00241   126.8627584   0.0017762   63.3536872   42.2357915   0.0001983   126.2354277   0.001801   0.0024269   126.3501594   0.0017964   
00940   127.2847693   0.0017818   0.0024124   127.1700144   0.0017771   63.5071296   42.3380864   0.0001988   126.7083878   0.001801   0.0024293   126.8289736   0.0017964   
00941   127.7213586   0.0017818   0.0024146   127.6083987   0.0017771   63.7260537   42.4840358   0.0001995   127.1433182   0.001801   0.0024315   127.2662778   0.0017964   
00942   127.9900635   0.0017829   0.002417   127.8821744   0.0017781   63.862714   42.5751426   0.0001999   127.6289764   0.001801   0.0024339   127.7541174   0.0017964   
00943   128.4266776   0.0017829   0.0024192   128.3205588   0.0017781   64.0816379   42.721092   0.0002006   128.0639208   0.001801   0.0024361   128.1914216   0.0017964   
00944   128.8576866   0.0017829   0.0024214   128.7535131   0.0017782   64.297801   42.8652006   0.0002013   128.5005704   0.001801   0.0024383   128.6304546   0.0017964   
00945   129.2932275   0.0017829   0.0024236   129.1908741   0.0017782   64.516214   43.0108093   0.000202   128.9358389   0.001801   0.0024405   129.0679983   0.0017964   
00946   129.7243706   0.0017829   0.0024258   129.6239466   0.0017782   64.7324889   43.1549926   0.0002026   129.356966   0.0018011   0.0024427   129.4894297   0.0017965   
00947   130.1549449   0.001783   0.002428   130.056396   0.0017782   64.9484734   43.2989822   0.0002033   129.7744165   0.0018012   0.0024449   129.9091713   0.0017966   
00948   130.5803648   0.0017831   0.0024302   130.4837604   0.0017783   65.1619155   43.441277   0.000204   130.1460927   0.0018015   0.0024471   130.2852069   0.0017969   
00949   130.9914738   0.0017832   0.0024325   130.897351   0.0017785   65.3685713   43.5790475   0.0002046   130.4685684   0.0018021   0.0024493   130.6109698   0.0017975   
00950   131.3584153   0.0017837   0.0024347   131.2665914   0.0017789   65.5528672   43.7019115   0.0002052   130.9249699   0.0018021   0.0024516   131.0696738   0.0017975   
00951   131.789418   0.0017837   0.0024369   131.6994584   0.001779   65.7690329   43.8460219   0.0002059   131.3616114   0.0018021   0.0024538   131.5087878   0.0017975   
00952   132.131076   0.0017838   0.0024388   132.0368336   0.0017791   65.9378644   43.9585763   0.0002064   131.7463264   0.0018021   0.0024557   131.8862429   0.0017975   
00953   132.518099   0.0017841   0.002441   132.426687   0.0017794   66.1325221   44.0883481   0.000207   132.1959427   0.0018021   0.0024579   132.3387802   0.0017975   
00954   132.8189179   0.001785   0.0024434   132.7291601   0.0017803   66.2835677   44.1890451   0.0002075   132.6740638   0.0018021   0.0024603   132.8160481   0.0017975   
00955   133.2382083   0.0017851   0.0024456   133.1501956   0.0017804   66.4936693   44.3291129   0.0002082   133.1117315   0.0018021   0.0024625   133.2573624   0.0017975   
00956   125.9376137   0.001836   0.0024597   125.8020593   0.0018311   62.8235605   41.8823737   0.0001967   125.8013821   0.0018532   0.0024767   125.8532545   0.0018485   
00957   126.3662393   0.0018361   0.0024619   126.2328723   0.0018312   63.0387121   42.0258081   0.0001973   126.2381987   0.0018532   0.0024789   126.293303   0.0018485   
00958   126.80181   0.0018361   0.0024641   126.6703422   0.0018312   63.2571851   42.1714567   0.000198   126.6733697   0.0018532   0.0024811   126.7309506   0.0018485   
00959   127.2349007   0.0018361   0.0024663   127.105488   0.0018312   63.4744942   42.3163295   0.0001987   127.1090974   0.0018532   0.0024833   127.1694362   0.0018485   
00960   127.6631762   0.0018361   0.0024685   127.536012   0.0018313   63.6894174   42.4596116   0.0001994   127.546428   0.0018532   0.0024855   127.6091772   0.0018485   
00961   128.0968675   0.0018362   0.0024707   127.9716969   0.0018313   63.9069952   42.6046635   0.0002001   127.9821699   0.0018532   0.0024877   128.0473119   0.0018485   
00962   128.5323577   0.0018362   0.0024728   128.4090468   0.0018313   64.1254081   42.7502721   0.0002007   128.4174086   0.0018532   0.0024898   128.4850081   0.0018485   
00963   128.9679938   0.0018362   0.002475   128.8465531   0.0018313   64.3438884   42.8959256   0.0002014   128.8526213   0.0018532   0.002492   128.922569   0.0018485   
00964   129.3190154   0.0018367   0.0024774   129.2017692   0.0018318   64.5213093   43.0142062   0.000202   129.2285282   0.0018536   0.0024943   129.3108215   0.0018489   
00965   129.7556188   0.0018367   0.0024795   129.6401534   0.0018318   64.740233   43.1601553   0.0002027   129.6634787   0.0018536   0.0024965   129.7481256   0.0018489   
00966   130.1776973   0.0018368   0.0024818   130.0646235   0.0018319   64.9521969   43.3014646   0.0002033   130.1028481   0.0018536   0.0024987   130.1896666   0.0018489   
00967   130.6116506   0.0018368   0.0024839   130.5004529   0.0018319   65.1698504   43.4465669   0.000204   130.5391818   0.0018536   0.0025009   130.6256868   0.0018489   
00968   131.0403189   0.0018369   0.0024861   130.9311046   0.001832   65.3849223   43.5899482   0.0002047   130.976551   0.0018536   0.0025031   131.0654191   0.0018489   
00969   131.4747571   0.0018369   0.0024883   131.3673014   0.001832   65.6027626   43.7351751   0.0002054   131.3843986   0.0018538   0.0025053   131.4753503   0.001849   
00970   131.9052192   0.0018369   0.0024905   131.7992653   0.001832   65.818504   43.8790026   0.000206   131.8191445   0.0018538   0.0025075   131.9120702   0.001849   
00971   132.1340293   0.0018382   0.0024929   132.0397747   0.0018333   65.938978   43.9593187   0.0002064   132.2109355   0.0018538   0.0025094   132.3183225   0.001849   
00972   132.5560718   0.0018383   0.0024951   132.4638744   0.0018334   66.1506504   44.1004336   0.0002071   132.6491273   0.0018538   0.0025116   132.759344   0.001849   
00973   132.9897419   0.0018383   0.0024973   132.8992243   0.0018334   66.3680505   44.245367   0.0002078   133.0848743   0.0018538   0.0025138   133.198024   0.001849   
00974   133.3698311   0.0018387   0.0024996   133.2814733   0.0018338   66.5589268   44.3726179   0.0002084   133.5342969   0.0018538   0.0025161   133.651287   0.001849   
00975   133.7377291   0.0018391   0.0025019   133.6519193   0.0018342   66.7437911   44.4958607   0.0002089   133.978241   0.0018538   0.0025184   134.0952356   0.0018491   
00976   134.1231192   0.0018394   0.0025041   134.0394277   0.0018345   66.9373825   44.6249216   0.0002095   134.4129666   0.0018539   0.0025206   134.5274681   0.0018491   
00977   134.4420035   0.0018402   0.0025065   134.3608031   0.0018353   67.0982335   44.7321557   0.00021   134.7089558   0.0018548   0.002523   134.8185718   0.00185   
00978   128.6746656   0.0018807   0.002518   128.5574885   0.0018757   64.1995084   42.7996723   0.000201   128.498101   0.0018979   0.0025348   128.5559576   0.001893   
00979   129.107649   0.0018807   0.0025202   128.9924161   0.0018757   64.4167041   42.9444694   0.0002017   128.9343104   0.0018979   0.002537   128.9943293   0.001893   
00980   129.5248468   0.0018808   0.0025224   129.4125402   0.0018758   64.6265385   43.084359   0.0002023   129.3736498   0.0018979   0.0025392   129.436806   0.001893   
00981   129.93969   0.001881   0.0025246   129.8299626   0.001876   64.8349972   43.2233314   0.000203   129.8130502   0.0018979   0.0025414   129.8799633   0.001893   
00982   130.3717687   0.001881   0.0025268   130.2639972   0.001876   65.0517798   43.3678532   0.0002036   130.2498769   0.0018979   0.0025436   130.3178691   0.001893   
00983   130.8052359   0.001881   0.002529   130.6993414   0.001876   65.2692081   43.5128054   0.0002043   130.6856215   0.0018979   0.0025458   130.7553794   0.001893   
00984   131.2405488   0.001881   0.0025312   131.136488   0.001876   65.487521   43.6583473   0.000205   131.1208982   0.0018979   0.002548   131.1930296   0.001893   
00985   131.6757631   0.0018811   0.0025334   131.5735555   0.001876   65.705795   43.8038633   0.0002057   131.5561679   0.0018979   0.0025501   131.6307088   0.001893   
00986   132.1124095   0.0018811   0.0025356   132.0119399   0.001876   65.9247191   43.9498127   0.0002064   131.9911787   0.0018979   0.0025523   132.0680131   0.001893   
00987   132.4819562   0.0018815   0.0025379   132.3846192   0.0018765   66.1108044   44.0738696   0.000207   132.4523215   0.0018979   0.0025546   132.5282118   0.001893   
00988   132.9176792   0.0018815   0.0025401   132.8222303   0.0018765   66.3293496   44.2195664   0.0002076   132.8871473   0.0018979   0.0025568   132.9655224   0.001893   
00989   133.3543515   0.0018815   0.0025423   133.2606146   0.0018765   66.5482735   44.3655157   0.0002083   133.3221833   0.0018979   0.002559   133.4028264   0.001893   
00990   133.7861326   0.0018815   0.0025445   133.6943612   0.0018765   66.764822   44.5098813   0.000209   133.7581688   0.0018979   0.0025612   133.8412586   0.001893   
00991   134.1994856   0.0018817   0.0025467   134.1092861   0.0018767   66.9717494   44.6478329   0.0002097   134.200335   0.0018979   0.0025634   134.285834   0.001893   
00992   134.5716896   0.0018821   0.002549   134.4835888   0.0018771   67.1587044   44.7724696   0.0002102   134.6137735   0.0018981   0.0025657   134.7074587   0.0018932   
00993   124.8279992   0.0019488   0.0025667   124.7041074   0.0019437   62.27245   41.5149667   0.0001949   124.756615   0.0019656   0.0025836   124.7780356   0.0019606   
00994   125.2636489   0.0019488   0.0025689   125.1415863   0.0019437   62.4909404   41.6606269   0.0001956   125.1918391   0.0019656   0.0025858   125.2156218   0.0019606   
00995   125.6740966   0.001949   0.0025712   125.5547571   0.0019438   62.6974199   41.7982799   0.0001963   125.3272449   0.001967   0.002588   125.3751629   0.0019621   
00996   126.1097884   0.001949   0.0025733   125.9922384   0.0019438   62.9159126   41.9439417   0.000197   125.7624942   0.001967   0.0025902   125.8127479   0.0019621   
00997   126.5416876   0.001949   0.0025755   126.4259021   0.0019439   63.1324783   42.0883189   0.0001976   126.1989479   0.001967   0.0025924   126.2515096   0.0019621   
00998   126.9744714   0.001949   0.0025777   126.8606324   0.0019439   63.349584   42.233056   0.0001983   126.6350853   0.001967   0.0025946   126.6899435   0.0019621   
00999   127.4105181   0.001949   0.0025799   127.298478   0.0019439   63.568251   42.378834   0.000199   127.0702298   0.001967   0.0025967   127.1274208   0.0019621   
01000   127.8471321   0.001949   0.0025821   127.7368624   0.0019439   63.7871752   42.5247835   0.0001997   127.5052215   0.001967   0.0025989   127.5647249   0.0019621   
01001   128.2837523   0.001949   0.0025843   128.1752467   0.0019439   64.0060992   42.6707328   0.0002004   127.9402193   0.001967   0.0026011   128.0020289   0.0019621   
01002   128.7203788   0.001949   0.0025865   128.613631   0.0019439   64.2250234   42.8166822   0.0002011   128.3752226   0.001967   0.0026033   128.4393332   0.0019621   
01003   129.1565742   0.001949   0.0025887   129.0515688   0.0019439   64.4437184   42.9624789   0.0002017   128.8103719   0.001967   0.0026055   128.8767727   0.0019621   
01004   129.5919505   0.001949   0.0025909   129.4887186   0.0019439   64.662028   43.1080187   0.0002024   129.2037688   0.0019672   0.0026077   129.2817351   0.0019623   
01005   130.0285955   0.001949   0.0025931   129.9271029   0.0019439   64.8809518   43.2539679   0.0002031   129.6387904   0.0019672   0.0026098   129.7190391   0.0019623   
01006   130.4615538   0.0019491   0.0025953   130.3619577   0.0019439   65.098044   43.398696   0.0002038   130.0739205   0.0019672   0.002612   130.1570025   0.0019623   
01007   130.8982112   0.0019491   0.0025974   130.800342   0.0019439   65.3169679   43.5446453   0.0002045   130.5089576   0.0019672   0.0026142   130.5943067   0.0019623   
01008   131.2884534   0.0019494   0.0025997   131.1923328   0.0019442   65.5128539   43.675236   0.0002051   130.9027295   0.0019675   0.0026165   130.9885501   0.0019625   
01009   131.7228882   0.0019494   0.0026019   131.6285839   0.0019443   65.730667   43.8204447   0.0002058   131.3383552   0.0019675   0.0026186   131.4264646   0.0019625   
01010   132.1272872   0.0019496   0.0026041   132.0359828   0.0019445   65.9343745   43.9562497   0.0002064   131.781921   0.0019675   0.0026209   131.8732154   0.0019625   
01011   132.5619092   0.0019496   0.0026063   132.4723616   0.0019445   66.1522766   44.1015178   0.0002071   132.2176116   0.0019675   0.0026231   132.3111237   0.0019625   
01012   132.9976268   0.0019496   0.0026085   132.909764   0.0019445   66.3707128   44.2471419   0.0002078   132.6528661   0.0019675   0.0026252   132.74867   0.0019625   
01013   133.4313485   0.0019496   0.0026107   133.3451555   0.0019445   66.5881093   44.3920729   0.0002084   133.0888669   0.0019675   0.0026274   133.1869124   0.0019625   
01014   127.9326796   0.0019886   0.0026219   127.8075231   0.0019834   63.8226656   42.5484437   0.0001998   127.6279694   0.0020066   0.0026388   127.6112452   0.0020015   
01015   128.3671053   0.0019887   0.0026241   128.2439254   0.0019834   64.0405913   42.6937275   0.0002005   128.0635194   0.0020066   0.002641   128.0491528   0.0020015   
01016   128.7808575   0.0019888   0.0026264   128.660391   0.0019835   64.2487413   42.8324942   0.0002011   128.5055479   0.0020066   0.0026432   128.4931021   0.0020015   
01017   129.2163306   0.0019888   0.0026286   129.0977451   0.0019835   64.4671427   42.9780951   0.0002018   128.9407819   0.0020066   0.0026454   128.930714   0.0020015   
01018   129.6529248   0.0019888   0.0026307   129.5361294   0.0019835   64.6860668   43.1240445   0.0002025   129.3757209   0.0020066   0.0026475   129.3680181   0.0020015   
01019   130.069325   0.0019889   0.002633   129.9553104   0.0019837   64.8950101   43.2633401   0.0002032   129.8167723   0.0020066   0.0026497   129.8112471   0.0020015   
01020   130.505935   0.0019889   0.0026351   130.3936948   0.0019837   65.1139341   43.4092894   0.0002038   130.251723   0.0020066   0.0026519   130.2485514   0.0020015   
01021   130.9370756   0.001989   0.0026373   130.8268707   0.0019837   65.3302174   43.5534783   0.0002045   130.6883618   0.0020066   0.0026541   130.687409   0.0020015   
01022   131.3726095   0.001989   0.0026395   131.2642046   0.0019837   65.5486171   43.6990781   0.0002052   131.1236671   0.0020066   0.0026563   131.1250313   0.0020015   
01023   131.8092389   0.001989   0.0026417   131.7025889   0.0019837   65.7675412   43.8450275   0.0002059   131.5586349   0.0020066   0.0026585   131.5623354   0.0020015   
01024   132.2408846   0.001989   0.0026439   132.1361393   0.0019837   65.9841157   43.9894105   0.0002066   131.9950526   0.0020066   0.0026607   132.0011333   0.0020015   
01025   132.6654677   0.0019891   0.0026461   132.5627079   0.0019838   66.1971772   44.1314514   0.0002072   132.4339106   0.0020066   0.0026629   132.4420117   0.0020015   
01026   133.0800031   0.0019892   0.0026483   132.9799394   0.001984   66.4055666   44.2703777   0.0002079   132.8735533   0.0020066   0.0026651   132.8840002   0.0020015   
01027   133.5069238   0.0019893   0.0026505   133.4090412   0.001984   66.6198195   44.413213   0.0002085   133.3098992   0.0020066   0.0026673   133.3234722   0.0020015   
01028   133.8296674   0.00199   0.0026529   133.7314489   0.0019848   66.7809355   44.5206237   0.0002091   133.7797582   0.0020066   0.0026696   133.7940652   0.0020015   
01029   134.2434624   0.0019902   0.0026551   134.1481119   0.0019849   66.9890225   44.6593483   0.0002097   134.2161899   0.0020066   0.0026718   134.2332612   0.0020015   
01030   134.6609614   0.0019903   0.0026573   134.5678086   0.001985   67.1986667   44.7991111   0.0002104   134.6485883   0.0020066   0.002674   134.6686558   0.0020015   
01031   132.8676573   0.0019996   0.0026576   132.7830517   0.0019942   66.3085616   44.2057077   0.0002076   132.9095796   0.002016   0.0026744   132.935253   0.0020107   
01032   131.1532863   0.0020002   0.0026496   131.0324081   0.0019948   65.4330222   43.6220148   0.0002048   130.88161   0.002016   0.0026642   130.8350746   0.0020107   
01033   131.2018539   0.0020023   0.0026519   131.0975125   0.0019969   65.4656286   43.6437524   0.0002049   131.214015   0.002016   0.0026659   131.2076631   0.0020107   
01034   131.6335562   0.0020023   0.0026541   131.5308807   0.0019969   65.6820518   43.7880346   0.0002056   131.6440188   0.002016   0.0026681   131.6397489   0.0020107   
01035   132.062903   0.0020023   0.0026563   131.9623729   0.001997   65.8975823   43.9317215   0.0002063   132.0770159   0.002016   0.0026703   132.0758231   0.0020107   
01036   132.4968945   0.0020023   0.0026585   132.3982778   0.001997   66.1152565   44.0768377   0.000207   132.5103786   0.002016   0.0026725   132.5118203   0.0020107   
01037   132.9244897   0.0020024   0.0026607   132.8281751   0.001997   66.3299234   44.2199489   0.0002076   132.9444535   0.002016   0.0026746   132.9485286   0.0020107   
01038   133.3603551   0.0020024   0.0026628   133.2657701   0.001997   66.5484411   44.3656274   0.0002083   133.3787392   0.002016   0.0026768   133.3850702   0.0020107   
01039   133.7793183   0.0020024   0.0026649   133.6870553   0.001997   66.7585711   44.5057141   0.000209   133.7933492   0.002016   0.0026789   133.802501   0.0020107   
01040   134.2115031   0.0020024   0.0026671   134.1210984   0.001997   66.9753973   44.6502649   0.0002097   134.2262903   0.002016   0.0026811   134.2379072   0.0020107   
01041   134.638787   0.0020024   0.0026693   134.5498295   0.0019971   67.1895727   44.7930485   0.0002103   134.6560963   0.002016   0.0026832   134.669606   0.0020107   
01042   135.0220706   0.0020026   0.0026714   134.9360548   0.0019973   67.3824473   44.9216315   0.0002109   135.0607569   0.002016   0.0026853   135.0790643   0.0020107   
01043   135.4073692   0.002003   0.0026737   135.3250881   0.0019976   67.5763973   45.0509316   0.0002115   135.371941   0.0020167   0.0026876   135.3831047   0.0020115   
01044   135.7960145   0.0020032   0.0026759   135.7163088   0.0019978   67.7716427   45.1810952   0.0002122   135.7560037   0.002017   0.0026898   135.764597   0.0020117   
01045   125.0994478   0.0020762   0.0026951   124.977539   0.0020707   62.4093715   41.6062477   0.0001954   124.5412498   0.0020924   0.0027091   124.605004   0.0020871   
01046   125.4907579   0.0020764   0.0026974   125.3727988   0.002071   62.6064945   41.737663   0.000196   124.9601789   0.0020926   0.0027114   125.0285399   0.0020872   
01047   125.8903791   0.0020767   0.0026996   125.7766839   0.0020712   62.8082955   41.872197   0.0001966   125.405841   0.0020926   0.0027136   125.4758817   0.0020872   
01048   126.3176237   0.0020767   0.0027018   126.2060526   0.0020712   63.0227451   42.0151634   0.0001973   125.8436442   0.0020926   0.0027158   125.9160373   0.0020872   
01049   126.7487668   0.0020768   0.002704   126.6392357   0.0020713   63.2391307   42.1594205   0.000198   126.2799011   0.0020926   0.002718   126.3550757   0.0020872   
01050   127.1727763   0.0020768   0.0027062   127.0658024   0.0020714   63.4523939   42.3015959   0.0001986   126.7180781   0.0020926   0.0027202   126.7956756   0.0020872   
01051   127.6084556   0.0020768   0.0027084   127.5032614   0.0020714   63.6708608   42.4472405   0.0001993   127.153623   0.0020926   0.0027224   127.2328254   0.0020872   
01052   128.0450858   0.0020768   0.0027106   127.9416457   0.0020714   63.8897847   42.5931898   0.0002   127.5886852   0.0020926   0.0027246   127.6701295   0.0020872   
01053   128.4548945   0.002077   0.0027128   128.3538581   0.0020715   64.0954   42.7302667   0.0002006   128.0323588   0.0020926   0.0027268   128.1143415   0.0020872   
01054   128.8915393   0.002077   0.002715   128.7922424   0.0020715   64.3143239   42.8762159   0.0002013   128.4674323   0.0020926   0.002729   128.5516456   0.0020872   
01055   129.3271962   0.002077   0.0027172   129.2296679   0.0020715   64.5327877   43.0218584   0.000202   128.9031888   0.0020926   0.0027312   128.9886497   0.0020872   
01056   129.7638532   0.002077   0.0027194   129.6680523   0.0020715   64.7517118   43.1678078   0.0002027   129.3382727   0.0020926   0.0027334   129.4259539   0.0020872   
01057   130.2005162   0.002077   0.0027216   130.1064366   0.0020715   64.970636   43.3137573   0.0002034   129.7733617   0.0020926   0.0027355   129.863258   0.0020872   
01058   130.6364408   0.002077   0.0027238   130.5441149   0.0020715   65.1891908   43.4594605   0.0002041   130.2085321   0.0020926   0.0027377   130.3009298   0.0020872   
01059   131.0699763   0.0020771   0.002726   130.979467   0.0020716   65.4065521   43.604368   0.0002048   130.6448282   0.0020926   0.0027399   130.7385079   0.0020872   
01060   130.9988269   0.0020804   0.0027289   130.9111187   0.0020749   65.3719187   43.5812791   0.0002046   131.0104976   0.0020938   0.0027429   131.070007   0.0020884   
01061   131.4137861   0.0020805   0.0027311   131.328396   0.002075   65.580273   43.720182   0.0002053   131.4441017   0.0020938   0.0027451   131.5026968   0.0020885   
01062   131.8409782   0.0020806   0.0027333   131.7575369   0.0020751   65.7945623   43.8630415   0.000206   131.8829271   0.0020938   0.0027473   131.9408048   0.0020885   
01063   132.2527551   0.0020807   0.0027356   132.1716399   0.0020752   66.0013652   44.0009101   0.0002066   132.2212257   0.0020943   0.0027495   132.2903514   0.002089   
01064   131.566093   0.0020881   0.0027395   131.4759815   0.0020826   65.655295   43.7701967   0.0002055   131.0429149   0.0021042   0.0027534   131.0819807   0.0020989   
01065   132.002136   0.0020881   0.0027417   131.9137227   0.0020826   65.8739168   43.9159446   0.0002062   131.4517092   0.0021044   0.0027556   131.4956687   0.002099   
01066   132.437412   0.0020882   0.0027439   132.3506925   0.0020826   66.0921333   44.0614222   0.0002069   131.8872412   0.0021044   0.0027578   131.9334137   0.002099   
01067   132.8714887   0.0020882   0.0027461   132.7864603   0.0020826   66.309721   44.2064806   0.0002076   132.3232914   0.0021044   0.00276   132.3713573   0.002099   
01068   133.3064343   0.0020882   0.0027483   133.2231443   0.0020827   66.5278146   44.3518764   0.0002083   132.7589121   0.0021044   0.0027622   132.809185   0.002099   
01069   133.7421793   0.0020882   0.0027504   133.6605541   0.0020827   66.7462284   44.4974856   0.0002089   133.1944804   0.0021044   0.0027643   133.2465459   0.002099   
01070   134.1692885   0.0020883   0.0027527   134.0897825   0.0020827   66.9606053   44.6404035   0.0002096   133.6321845   0.0021044   0.0027665   133.6858428   0.002099   
01071   134.5521316   0.0020886   0.0027549   134.4756164   0.0020831   67.1533817   44.7689211   0.0002102   134.015489   0.0021047   0.0027688   134.0621507   0.0020993   
01072   134.844942   0.0020887   0.0027565   134.7663122   0.0020832   67.2987237   44.8658158   0.0002107   134.3474816   0.0021048   0.0027705   134.3859439   0.0020994   
01073   135.259115   0.0020888   0.0027587   135.1825274   0.0020833   67.5065754   45.0043836   0.0002113   134.7885667   0.0021048   0.0027727   134.823396   0.0020994   
01074   135.5347413   0.002089   0.0027602   135.4571142   0.0020835   67.6440886   45.0960591   0.0002118   135.1223285   0.0021048   0.0027743   135.1471381   0.0020994   
01075   135.9462301   0.0020891   0.0027624   135.8709694   0.0020836   67.8508501   45.2339001   0.0002124   135.5403265   0.0021048   0.0027765   135.5643413   0.0020994   
01076   136.2828854   0.0020897   0.0027647   136.2110227   0.0020842   68.0208795   45.347253   0.0002129   135.9598046   0.002105   0.0027788   135.9849439   0.0020996   
01077   130.1867151   0.0021326   0.0027769   130.0871823   0.002127   64.962729   43.308486   0.0002034   130.1454744   0.0021467   0.0027911   130.0757635   0.0021412   
01078   130.5979249   0.0021328   0.0027791   130.5011958   0.0021271   65.1694659   43.4463106   0.000204   130.5878134   0.0021467   0.0027933   130.5206386   0.0021412   
01079   131.0197862   0.0021329   0.0027813   130.9256938   0.0021272   65.3814409   43.5876273   0.0002047   131.0270693   0.0021467   0.0027955   130.962244   0.0021412   
01080   131.4460717   0.0021329   0.0027836   131.3540136   0.0021273   65.5953538   43.7302359   0.0002053   131.4652421   0.0021467   0.0027977   131.4027378   0.0021412   
01081   131.8776539   0.002133   0.0027858   131.7876011   0.0021273   65.8118693   43.8745795   0.000206   131.9016982   0.0021467   0.0027999   131.8415609   0.0021412   
01082   132.2935596   0.0021331   0.002788   132.2062607   0.0021274   66.0209611   44.0139741   0.0002067   132.2749203   0.002147   0.0028021   132.2224381   0.0021416   
01083   132.7281535   0.0021331   0.0027902   132.642606   0.0021274   66.2388664   44.1592442   0.0002074   132.7105924   0.002147   0.0028043   132.6603772   0.0021416   
01084   133.1431796   0.0021332   0.0027924   133.060098   0.0021276   66.4473454   44.2982303   0.000208   133.1520554   0.002147   0.0028065   133.1041359   0.0021416   
01085   133.5736073   0.0021333   0.0027946   133.4924662   0.0021276   66.6632516   44.4421677   0.0002087   133.5889884   0.002147   0.0028087   133.5432845   0.0021416   
01086   134.0021863   0.0021333   0.0027968   133.9232017   0.0021277   66.8783687   44.5855791   0.0002094   134.026243   0.002147   0.0028109   133.9832719   0.0021416   
01087   134.3865063   0.0021337   0.002799   134.3109269   0.002128   67.0719627   44.7146418   0.00021   134.4769205   0.002147   0.0028131   134.4359542   0.0021416   
01088   134.8200722   0.0021337   0.0028012   134.7462995   0.002128   67.2893848   44.8595899   0.0002106   134.9129409   0.002147   0.0028153   134.8741859   0.0021416   
01089   135.2496963   0.0021337   0.0028034   135.1777907   0.0021281   67.5048648   45.0032432   0.0002113   135.3496459   0.002147   0.0028175   135.3143519   0.0021416   
01090   135.6593321   0.0021339   0.0028057   135.5900504   0.0021282   67.7107437   45.1404958   0.000212   135.7826298   0.0021471   0.0028197   135.7429287   0.0021416   
01091   136.0904408   0.0021339   0.0028079   136.0229224   0.0021283   67.9269202   45.2846134   0.0002126   136.151756   0.0021474   0.0028219   136.1172819   0.002142   
01092   136.5142941   0.002134   0.0028101   136.4487134   0.0021283   68.1395663   45.4263776   0.0002133   136.5695275   0.0021475   0.0028241   136.5416972   0.0021421   
01093   126.6663395   0.0022013   0.0028279   126.5698833   0.0021955   63.2056721   42.1371147   0.0001979   126.977385   0.002214   0.0028424   126.9051655   0.0022084   
01094   127.1023111   0.0022013   0.0028301   127.0076086   0.0021955   63.4242705   42.282847   0.0001985   127.4126069   0.002214   0.0028446   127.3426734   0.0022084   
01095   127.5389992   0.0022013   0.0028323   127.445993   0.0021955   63.6431946   42.4287964   0.0001992   127.8476393   0.002214   0.0028468   127.7799774   0.0022084   
01096   127.9756931   0.0022013   0.0028345   127.8843773   0.0021955   63.8621186   42.5747457   0.0001999   128.2826772   0.002214   0.0028489   128.2172815   0.0022084   
01097   128.4113585   0.0022013   0.0028367   128.3217662   0.0021955   64.0805437   42.7203624   0.0002006   128.7180196   0.002214   0.0028511   128.6548797   0.0022084   
01098   128.8446767   0.0022013   0.0028389   128.7569146   0.0021955   64.2978279   42.8652186   0.0002013   129.1540481   0.002214   0.0028533   129.0931253   0.0022084   
01099   129.2798106   0.0022013   0.002841   129.1938227   0.0021955   64.5160117   43.0106745   0.000202   129.589545   0.002214   0.0028555   129.5308635   0.0022084   
01100   129.7153705   0.0022013   0.0028432   129.6311033   0.0021955   64.7343915   43.156261   0.0002026   130.0249401   0.002214   0.0028577   129.9685182   0.0022084   
01101   130.151202   0.0022013   0.0028454   130.068633   0.0021956   64.9528856   43.3019237   0.0002033   130.4602755   0.002214   0.0028599   130.4060738   0.0022084   
01102   130.5879309   0.0022013   0.0028476   130.5070174   0.0021956   65.1718097   43.4478731   0.000204   130.8953449   0.002214   0.0028621   130.8433779   0.0022084   
01103   131.0074351   0.0022014   0.0028498   130.9288442   0.0021957   65.3824563   43.5883042   0.0002047   131.3338706   0.002214   0.0028643   131.2862091   0.0022084   
01104   131.436184   0.0022015   0.002852   131.3595691   0.0021957   65.5975526   43.7317018   0.0002053   131.7688088   0.002214   0.0028665   131.7284246   0.0022084   
01105   131.8720943   0.0022015   0.0028542   131.7971477   0.0021957   65.8160761   43.8773841   0.000206   132.2041364   0.002214   0.0028686   132.1659681   0.0022084   
01106   132.2990703   0.0022015   0.0028564   132.2261643   0.0021958   66.0303327   44.0202218   0.0002067   132.5982043   0.0022142   0.0028708   132.5558645   0.0022086   
01107   132.7142726   0.0022017   0.0028586   132.6437093   0.0021959   66.2387755   44.1591837   0.0002074   132.8677031   0.002215   0.002873   132.8461158   0.0022095   
01108   133.0985804   0.002202   0.0028609   133.0316745   0.0021962   66.4324788   44.2883192   0.000208   133.2910295   0.0022152   0.0028753   133.2759139   0.0022096   
01109   133.4789101   0.0022024   0.0028632   133.4141928   0.0021966   66.6234307   44.4156205   0.0002086   133.7079422   0.0022153   0.0028776   133.7019843   0.0022097   
01110   133.9156977   0.0022024   0.0028654   133.8525772   0.0021966   66.8423548   44.5615698   0.0002092   134.1430795   0.0022153   0.0028797   134.1392881   0.0022097   
01111   134.3483054   0.0022024   0.0028675   134.2867635   0.0021966   67.0592782   44.7061855   0.0002099   134.5783077   0.0022153   0.0028819   134.5760458   0.0022097   
01112   134.7626919   0.0022025   0.0028698   134.7032748   0.0021967   67.2672128   44.8448085   0.0002106   135.0202737   0.0022153   0.0028841   135.0045669   0.0022097   
01113   135.1799987   0.0022026   0.002872   135.12302   0.0021968   67.4766834   44.9844556   0.0002112   135.4612855   0.0022153   0.0028863   135.4470121   0.0022097   
01114   135.5745782   0.0022029   0.0028742   135.5202868   0.0021971   67.675037   45.1166913   0.0002118   135.9083275   0.0022153   0.0028886   135.8960943   0.0022097   
01115   135.9265278   0.0022034   0.0028765   135.8742119   0.0021976   67.8515571   45.2343714   0.0002124   136.364751   0.0022153   0.0028909   136.3563553   0.0022097   
01116   136.3444164   0.0022035   0.0028787   136.2940477   0.0021977   68.0612876   45.3741917   0.0002131   136.8041054   0.0022153   0.0028931   136.796991   0.0022097   
01117   136.7146579   0.0022039   0.002881   136.6673902   0.0021982   68.2476409   45.4984272   0.0002136   137.2573933   0.0022153   0.0028954   137.2545841   0.0022097   
01118   136.5834863   0.0022049   0.0028813   136.5196639   0.0021991   68.1742529   45.4495019   0.0002134   137.2916253   0.0022161   0.0028962   137.2367219   0.0022105   
01119   136.891496   0.0022057   0.0028836   136.8313162   0.0021999   68.3298706   45.5532471   0.0002139   137.5906098   0.0022169   0.0028986   137.5472879   0.0022113   
01120   137.1787968   0.0022067   0.0028861   137.1159759   0.0022009   68.4722208   45.6481472   0.0002143   137.3044715   0.0022212   0.0029014   137.241863   0.0022156   
01121   137.5334797   0.0022072   0.0028884   137.4727747   0.0022015   68.6502698   45.7668466   0.0002149   137.6947493   0.0022216   0.0029037   137.633118   0.002216   
01122   137.9145385   0.0022075   0.0028906   137.8558355   0.0022018   68.8419168   45.8946112   0.0002155   138.0220324   0.0022221   0.0029059   137.9741734   0.0022165   
01123   138.0948461   0.0022092   0.0028931   138.0394977   0.0022034   68.9335972   45.9557315   0.0002158   138.4633513   0.0022225   0.0029085   138.4066586   0.0022169   
01124   138.3167122   0.0022105   0.0028956   138.2631995   0.0022047   69.0453344   46.0302229   0.0002161   138.7951026   0.0022234   0.002911   138.718821   0.0022177   
01125   131.0235995   0.0022381   0.0028864   130.9268051   0.0022322   65.3859425   43.5906283   0.0002047   131.2761975   0.0022587   0.0029085   131.2432809   0.0022529   
01126   131.4603039   0.0022381   0.0028886   131.3651895   0.0022322   65.6048666   43.7365777   0.0002054   131.7112794   0.0022587   0.0029107   131.6805851   0.0022529   
01127   131.8937024   0.0022382   0.0028908   131.8008647   0.0022322   65.8223827   43.8815885   0.0002061   132.1434582   0.0022588   0.002913   132.1105297   0.002253   
01128   132.3259838   0.0022382   0.002893   132.2346972   0.0022322   66.0388954   44.0259303   0.0002068   132.5763912   0.0022588   0.0029151   132.5451815   0.002253   
01129   132.7606412   0.0022382   0.0028952   132.6712933   0.0022322   66.2568576   44.1712384   0.0002074   133.0123868   0.0022588   0.0029173   132.9835948   0.002253   
01130   133.188987   0.0022382   0.0028973   133.1007713   0.0022323   66.4712267   44.3141511   0.0002081   133.445513   0.0022588   0.0029195   133.418329   0.002253   
01131   133.6201617   0.0022382   0.0028995   133.5337961   0.0022323   66.6874509   44.4583006   0.0002088   133.8825086   0.0022588   0.0029217   133.8576688   0.002253   
01132   134.0514222   0.0022383   0.0029017   133.9667905   0.0022323   66.9037211   44.6024807   0.0002095   134.3216919   0.0022588   0.0029239   134.2988917   0.002253   
01133   134.4820921   0.0022383   0.0029039   134.3997694   0.0022324   67.1198773   44.7465849   0.0002101   134.7169293   0.002259   0.0029261   134.7029721   0.0022532   
01134   134.9188429   0.0022383   0.0029061   134.8381538   0.0022324   67.3388013   44.8925342   0.0002108   135.1520675   0.002259   0.0029283   135.1402763   0.0022532   
01135   135.3539002   0.0022383   0.0029083   135.2748562   0.0022324   67.5569488   45.0379659   0.0002115   135.5890854   0.002259   0.0029305   135.5787677   0.0022532   
01136   135.7872756   0.0022383   0.0029105   135.7104661   0.0022324   67.7744881   45.1829921   0.0002122   136.0238057   0.0022591   0.0029327   136.0127831   0.0022533   
01137   136.2160279   0.0022383   0.0029127   136.1407451   0.0022324   67.9891916   45.3261277   0.0002129   136.455859   0.0022591   0.0029349   136.4464431   0.0022533   
01138   136.6316403   0.0022384   0.0029148   136.5582617   0.0022325   68.1980004   45.4653336   0.0002135   136.8822941   0.0022591   0.002937   136.8666106   0.0022533   
01139   135.997135   0.0022455   0.0029187   135.9250051   0.0022395   67.8822755   45.2548503   0.0002125   136.1157545   0.0022675   0.0029415   136.0588876   0.0022617   
01140   136.4118795   0.0022456   0.0029209   136.3432952   0.0022396   68.0911212   45.3940808   0.0002132   136.5494053   0.0022675   0.0029437   136.4932604   0.0022617   
01141   136.8257258   0.0022457   0.0029231   136.759433   0.0022397   68.2982117   45.5321411   0.0002138   136.9861588   0.0022675   0.0029459   136.9310837   0.0022617   
01142   137.2395387   0.0022459   0.0029253   137.1749451   0.0022399   68.5054049   45.6702699   0.0002145   137.4316362   0.0022675   0.0029481   137.3767698   0.0022617   
01143   137.4153699   0.0022475   0.0029279   137.355104   0.0022416   68.5950979   45.7300653   0.0002148   137.9411836   0.0022675   0.0029506   137.8906701   0.0022617   
01144   137.8464257   0.0022476   0.0029301   137.7878264   0.0022416   68.8111868   45.8741246   0.0002154   138.3784809   0.0022675   0.0029528   138.3307879   0.0022617   
01145   138.2671826   0.0022477   0.0029323   138.2104382   0.0022417   69.022528   46.0150187   0.0002161   138.8186694   0.0022675   0.002955   138.7704399   0.0022617   
01146   138.5839996   0.0022482   0.0029344   138.5292765   0.0022422   69.1815814   46.1210542   0.0002166   139.1374113   0.0022679   0.0029571   139.1017466   0.0022621   
01147   138.8460508   0.0022493   0.0029368   138.7962381   0.0022433   69.3134803   46.2089869   0.000217   138.9352751   0.0022713   0.0029596   138.9200908   0.0022655   
01148   139.1666419   0.00225   0.0029391   139.1165114   0.002244   69.4743487   46.3162325   0.0002175   139.3998844   0.0022713   0.0029619   139.3837088   0.0022655   
01149   139.5593247   0.0022502   0.0029414   139.5113059   0.0022443   69.671344   46.4475627   0.0002181   139.8223415   0.0022714   0.0029641   139.8078374   0.0022656   
01150   139.945124   0.0022505   0.0029435   139.899498   0.0022445   69.865061   46.5767073   0.0002187   140.1344809   0.0022721   0.0029664   140.1333112   0.0022663   
01151   140.2001223   0.0022516   0.0029459   140.159596   0.0022456   69.9950228   46.6633486   0.0002191   140.2721709   0.0022737   0.0029687   140.2939562   0.0022679   
01152   133.1636016   0.0022998   0.0029585   133.0532965   0.0022937   66.4449683   44.2966455   0.000208   133.4064284   0.0023216   0.0029817   133.2719637   0.0023157   
01153   133.6003157   0.0022998   0.0029607   133.4916809   0.0022937   66.6638924   44.4425949   0.0002087   133.8415129   0.0023216   0.0029839   133.709268   0.0023157   
01154   134.037035   0.0022998   0.0029629   133.9300652   0.0022937   66.8828164   44.5885443   0.0002094   134.2766028   0.0023216   0.0029861   134.146572   0.0023157   
01155   134.4737598   0.0022998   0.0029651   134.3684495   0.0022937   67.1017403   44.7344935   0.0002101   134.711697   0.0023216   0.0029882   134.5838759   0.0023157   
01156   134.9096564   0.0022998   0.0029673   134.8060346   0.0022937   67.3202703   44.8801802   0.0002108   135.1476788   0.0023216   0.0029904   135.0202776   0.0023157   
01157   135.3448855   0.0022998   0.0029695   135.2429489   0.0022937   67.538466   45.025644   0.0002114   135.5832576   0.0023216   0.0029926   135.4580103   0.0023157   
01158   135.3980568   0.0023022   0.0029722   135.307479   0.0022961   67.5722107   45.0481405   0.0002116   135.9768177   0.0023224   0.0029954   135.8762383   0.0023164   
01159   135.8348329   0.0023022   0.0029744   135.7458634   0.0022961   67.7911347   45.1940898   0.0002122   136.4119661   0.0023224   0.0029976   136.3135426   0.0023164   
01160   136.2630555   0.0023023   0.0029766   136.175925   0.0022962   68.0057318   45.3371545   0.0002129   136.8498702   0.0023224   0.0029998   136.7528016   0.0023164   
01161   136.6857688   0.0023024   0.0029788   136.6009311   0.0022962   68.2181385   45.478759   0.0002136   137.2908902   0.0023224   0.003002   137.1904429   0.0023164   
01162   137.1026174   0.0023025   0.0029811   137.0199373   0.0022964   68.4269797   45.6179864   0.0002142   137.7319148   0.0023224   0.0030042   137.6340115   0.0023164   
01163   137.483891   0.0023029   0.0029833   137.4045418   0.0022967   68.6186579   45.7457719   0.0002148   138.1833256   0.0023224   0.0030064   138.0876364   0.0023164   
01164   137.9194702   0.0023029   0.0029855   137.8417374   0.0022967   68.8369899   45.8913266   0.0002155   138.6188623   0.0023224   0.0030086   138.5253003   0.0023164   
01165   138.3287082   0.0023031   0.0029877   138.2535899   0.0022969   69.043031   46.0286873   0.0002162   139.0625263   0.0023224   0.0030108   138.97213   0.0023164   
01166   138.7613189   0.0023031   0.0029899   138.6879024   0.0022969   69.2600142   46.1733428   0.0002168   139.4987291   0.0023224   0.003013   139.4109853   0.0023164   
01167   139.1698773   0.0023033   0.0029922   139.0989192   0.0022971   69.4653586   46.3102391   0.0002175   139.9101194   0.0023225   0.0030153   139.8303071   0.0023165   
01168   139.5455954   0.0023036   0.0029945   139.478165   0.0022975   69.6550039   46.4366693   0.0002181   139.7494192   0.0023255   0.0030175   139.7230128   0.0023195   
01169   139.9607655   0.0023038   0.0029967   139.8954874   0.0022976   69.8633136   46.5755424   0.0002187   140.1905573   0.0023255   0.0030197   140.1670221   0.0023195   
01170   140.3789308   0.0023039   0.0029989   140.3145829   0.0022977   70.0726378   46.7150919   0.0002194   140.5604299   0.0023258   0.0030219   140.5467109   0.0023198   
01171   140.7948868   0.002304   0.003001   140.7322718   0.0022978   70.2812965   46.8541976   0.00022   140.9888177   0.0023258   0.0030241   140.9712983   0.0023198   
01172   141.0969952   0.0023048   0.0030034   141.0376887   0.0022987   70.4341625   46.9561083   0.0002205   141.3833811   0.0023262   0.0030265   141.3829149   0.0023202   
01173   141.429537   0.0023055   0.0030057   141.3728965   0.0022993   70.6009652   47.0673101   0.000221   141.4258689   0.0023282   0.0030287   141.4428   0.0023222   
01174   133.6747571   0.0023588   0.00302   133.5770628   0.0023525   66.7071858   44.4714572   0.0002088   133.4689254   0.0023825   0.003043   133.4349246   0.0023764   
01175   134.1115057   0.0023588   0.0030222   134.0154471   0.0023525   66.9261098   44.6174065   0.0002095   133.9040382   0.0023825   0.0030451   133.8722283   0.0023764   
01176   134.5482595   0.0023588   0.0030244   134.4538315   0.0023525   67.1450338   44.7633559   0.0002102   134.3391559   0.0023825   0.0030473   134.3095325   0.0023764   
01177   134.9495688   0.002359   0.0030266   134.8580848   0.0023528   67.3468157   44.8978771   0.0002108   134.7836897   0.0023825   0.0030496   134.7580654   0.0023764   
01178   135.3841172   0.0023591   0.0030288   135.2943547   0.0023528   67.5646955   45.0431303   0.0002115   135.2200808   0.0023825   0.0030517   135.194797   0.0023764   
01179   135.8208906   0.0023591   0.003031   135.732739   0.0023528   67.7836195   45.1890797   0.0002122   135.6552151   0.0023825   0.0030539   135.6321012   0.0023764   
01180   136.2567507   0.0023591   0.0030332   136.1702564   0.0023528   68.0021222   45.3347482   0.0002129   136.0396731   0.0023828   0.0030561   136.0280666   0.0023766   
01181   136.6848873   0.0023591   0.0030354   136.600408   0.0023528   68.2169581   45.4779721   0.0002136   136.4760938   0.0023828   0.0030583   136.4619351   0.0023766   
01182   137.1203717   0.0023591   0.0030376   137.0375414   0.0023528   68.4352686   45.6235124   0.0002143   136.9117097   0.0023828   0.0030605   136.8994976   0.0023766   
01183   137.5529849   0.0023592   0.0030398   137.4719502   0.0023529   68.6522365   45.7681577   0.0002149   137.348026   0.0023828   0.0030627   137.3380733   0.0023766   
01184   137.9739557   0.0023593   0.003042   137.8950651   0.002353   68.8634922   45.9089948   0.0002156   137.7891716   0.0023828   0.0030649   137.7788145   0.0023766   
01185   138.3971305   0.0023593   0.0030442   138.3202861   0.0023531   69.0757083   46.0504722   0.0002163   138.2283507   0.0023828   0.0030671   138.2202656   0.0023766   
01186   138.8246967   0.0023594   0.0030464   138.7497969   0.0023531   69.2902069   46.1934713   0.0002169   138.6675839   0.0023828   0.0030693   138.6591704   0.0023766   
01187   139.2609262   0.0023594   0.0030486   139.187644   0.0023531   69.5088593   46.3392395   0.0002176   139.1029125   0.0023828   0.0030715   139.0966395   0.0023766   
01188   139.6916883   0.0023594   0.0030508   139.6199688   0.0023531   69.7247577   46.4831718   0.0002183   139.5392561   0.0023828   0.0030737   139.5350643   0.0023766   
01189   140.062083   0.0023599   0.0030531   139.9946484   0.0023536   69.9123154   46.6082103   0.0002189   139.9864453   0.0023828   0.0030759   139.9886284   0.0023766   
01190   136.5243383   0.0023861   0.0030614   136.4244215   0.0023797   68.1292184   45.4194789   0.0002133   136.3645236   0.0024094   0.0030843   136.3350495   0.0024032   
01191   136.961075   0.0023861   0.0030636   136.8628059   0.0023797   68.3481424   45.5654282   0.000214   136.7996319   0.0024094   0.0030864   136.7723538   0.0024032   
01192   137.3978169   0.0023861   0.0030658   137.3011902   0.0023797   68.5670663   45.7113775   0.0002147   137.2347448   0.0024094   0.0030886   137.2096578   0.0024032   
01193   137.8311953   0.0023861   0.003068   137.7363911   0.0023797   68.7843833   45.8562555   0.0002153   137.6703971   0.0024094   0.0030908   137.6483979   0.0024032   
01194   138.259123   0.0023862   0.0030702   138.166218   0.0023798   68.998999   45.9993327   0.000216   138.1075247   0.0024094   0.003093   138.0888435   0.0024032   
01195   138.6728697   0.0023863   0.0030724   138.582564   0.0023799   69.206952   46.137968   0.0002167   138.548919   0.0024094   0.0030952   138.5331519   0.0024032   
01196   139.0571003   0.0023866   0.0030747   138.9699332   0.0023802   69.4004049   46.2669366   0.0002173   139.0005984   0.0024094   0.0030975   138.983332   0.0024032   
01197   139.4917411   0.0023866   0.0030768   139.4062741   0.0023803   69.6183002   46.4122001   0.000218   139.4363333   0.0024094   0.0030997   139.4213361   0.0024032   
01198   139.9153537   0.0023867   0.0030791   139.8317723   0.0023803   69.8307096   46.5538064   0.0002186   139.8757864   0.0024094   0.0031019   139.8623022   0.0024032   
01199   140.3477947   0.0023867   0.0030812   140.2657835   0.0023803   70.0475237   46.6983491   0.0002193   140.3080581   0.0024094   0.003104   140.2964742   0.0024032   
01200   140.7626608   0.0023869   0.0030834   140.6825478   0.0023805   70.2558879   46.8372586   0.00022   140.7456214   0.0024094   0.0031062   140.7369008   0.0024032   
01201   141.189968   0.0023869   0.0030856   141.111765   0.0023805   70.4702315   46.9801543   0.0002206   141.1820862   0.0024094   0.0031084   141.1756466   0.0024032   
01202   141.5135649   0.0023876   0.003088   141.4379695   0.0023812   70.6336831   47.089122   0.0002211   141.5302684   0.0024101   0.0031108   141.5059288   0.0024039   
01203   141.9320473   0.0023877   0.0030902   141.858115   0.0023813   70.8434823   47.2289882   0.0002218   141.9659567   0.0024101   0.003113   141.9402922   0.0024039   
01204   135.1244759   0.0024355   0.0031035   134.9910702   0.0024289   67.4159735   44.9439823   0.0002111   135.3089339   0.0024571   0.0031265   135.2870754   0.0024508   
01205   135.5601269   0.0024355   0.0031057   135.4284508   0.0024289   67.6344282   45.0896188   0.0002117   135.74458   0.0024571   0.0031287   135.7249035   0.0024508   
01206   135.9967749   0.0024355   0.0031079   135.8668352   0.0024289   67.8533523   45.2355682   0.0002124   136.1795993   0.0024571   0.0031308   136.1622078   0.0024508   
01207   136.4317969   0.0024355   0.0031101   136.3035318   0.0024289   68.0714874   45.3809916   0.0002131   136.61638   0.0024571   0.003133   136.5992633   0.0024508   
01208   136.8672624   0.0024355   0.0031122   136.7407915   0.0024289   68.2898656   45.5265771   0.0002138   137.0515707   0.0024571   0.0031352   137.036806   0.0024508   
01209   137.3025923   0.0024355   0.0031144   137.1778636   0.002429   68.5081425   45.672095   0.0002145   137.4871329   0.0024571   0.0031374   137.4744091   0.0024508   
01210   137.7392631   0.0024355   0.0031166   137.616248   0.002429   68.7270664   45.8180443   0.0002152   137.9221722   0.0024571   0.0031396   137.911713   0.0024508   
01211   138.1570476   0.0024356   0.0031188   138.0362009   0.0024291   68.9370277   45.9580185   0.0002158   138.2369952   0.0024577   0.0031418   138.2352706   0.0024514   
01212   138.5931991   0.0024356   0.003121   138.4740937   0.0024291   69.1556959   46.1037973   0.0002165   138.6721867   0.0024577   0.003144   138.6727049   0.0024514   
01213   139.0294238   0.0024356   0.0031232   138.9120398   0.0024291   69.3744065   46.2496043   0.0002172   139.1073166   0.0024577   0.0031462   139.1101039   0.0024514   
01214   139.4615172   0.0024356   0.0031254   139.346261   0.0024291   69.5911653   46.3941102   0.0002179   139.4973515   0.0024579   0.0031483   139.5095163   0.0024516   
01215   139.8034914   0.0024362   0.0031277   139.6927907   0.0024297   69.7640026   46.5093351   0.0002184   139.9607096   0.0024579   0.0031507   139.9750065   0.0024516   
01216   140.2241997   0.0024363   0.00313   140.1158714   0.0024298   69.9751303   46.6500868   0.0002191   140.4002525   0.0024579   0.0031529   140.4172126   0.0024516   
01217   140.6211172   0.0024366   0.0031322   140.5147419   0.0024301   70.1748378   46.7832252   0.0002197   140.8527613   0.0024579   0.0031551   140.8673432   0.0024516   
01218   141.045375   0.0024367   0.0031344   140.9408896   0.0024301   70.3877303   46.9251536   0.0002204   141.245856   0.0024582   0.0031573   141.266006   0.0024518   
01219   141.4120706   0.0024371   0.0031367   141.3090552   0.0024306   70.5720369   47.0480246   0.0002209   141.2596843   0.0024604   0.0031597   141.2966912   0.002454   
01220   141.8407919   0.0024372   0.0031389   141.7397835   0.0024306   70.7870816   47.1913877   0.0002216   141.6966392   0.0024604   0.0031619   141.7359096   0.002454   
01221   134.6681748   0.0024813   0.003147   134.5406506   0.0024747   67.1917515   44.794501   0.0002104   134.8825651   0.0025093   0.0031765   134.9025959   0.0025028   
01222   135.1034402   0.0024813   0.0031492   134.9777555   0.0024747   67.4100382   44.9400255   0.000211   135.31761   0.0025093   0.0031787   135.3400221   0.0025028   
01223   135.5355598   0.0024814   0.0031514   135.4123019   0.0024747   67.6270417   45.0846944   0.0002117   135.7577046   0.0025093   0.0031809   135.7846879   0.0025028   
01224   135.9686598   0.0024814   0.0031535   135.8469284   0.0024747   67.8440738   45.2293826   0.0002124   136.1924542   0.0025093   0.0031831   136.222359   0.0025028   
01225   136.3686972   0.0024815   0.0031556   136.249368   0.0024748   68.0450094   45.3633396   0.000213   136.6167961   0.0025093   0.0031852   136.6475531   0.0025028   
01226   136.8001618   0.0024815   0.0031578   136.6823668   0.0024748   68.2612496   45.5074997   0.0002137   137.050206   0.0025093   0.0031874   137.083135   0.0025028   
01227   137.2368359   0.0024815   0.00316   137.1207512   0.0024748   68.4801737   45.6534491   0.0002144   137.4852439   0.0025093   0.0031896   137.5204392   0.0025028   
01228   137.6627414   0.0024815   0.0031622   137.5477097   0.0024749   68.6934469   45.7956312   0.0002151   137.9149239   0.0025093   0.0031917   137.9503073   0.0025028   
01229   138.0694794   0.0024816   0.0031643   137.9563464   0.002475   68.8974404   45.9316269   0.0002157   138.2643042   0.0025099   0.003194   138.2923849   0.0025034   
01230   138.503457   0.0024816   0.0031665   138.3913151   0.002475   69.1146247   46.0764165   0.0002164   138.6931237   0.0025099   0.0031962   138.71412   0.0025034   
01231   138.898145   0.0024819   0.0031687   138.7899433   0.0024752   69.3137076   46.2091384   0.000217   139.1272552   0.0025099   0.0031984   139.1541268   0.0025034   
01232   139.2104283   0.0024825   0.0031709   139.108398   0.0024758   69.4728656   46.3152438   0.0002175   139.1184682   0.002512   0.0032005   139.1833   0.0025055   
01233   139.6462247   0.0024825   0.0031731   139.5459361   0.0024758   69.6913615   46.4609076   0.0002182   139.5537408   0.002512   0.0032027   139.620822   0.0025055   
01234   140.0813309   0.0024825   0.0031753   139.9826797   0.0024758   69.9094323   46.6062882   0.0002189   139.9879125   0.002512   0.0032049   140.0570601   0.0025055   
01235   140.5131489   0.0024825   0.0031775   140.4168686   0.0024758   70.1263017   46.7508678   0.0002195   140.4213285   0.002512   0.003207   140.4929879   0.0025055   
01236   140.9467403   0.0024825   0.0031797   140.8523171   0.0024759   70.3437612   46.8958408   0.0002202   140.8571109   0.002512   0.0032092   140.9310826   0.0025055   
01237   141.3811986   0.0024825   0.0031819   141.2884617   0.0024759   70.561563   47.041042   0.0002209   141.2928942   0.002512   0.0032114   141.3690611   0.0025055   
01238   141.8104651   0.0024826   0.0031841   141.7194806   0.0024759   70.7768617   47.1845745   0.0002216   141.7286847   0.002512   0.0032136   141.8075749   0.0025055   
01239   142.2175521   0.0024828   0.0031863   142.1295596   0.0024761   70.981539   47.321026   0.0002222   142.1125979   0.0025124   0.0032159   142.1990577   0.0025059   
01240   142.5485977   0.0024833   0.0031885   142.4608496   0.0024767   71.1465519   47.4310346   0.0002227   142.5609428   0.0025124   0.0032181   142.642059   0.0025059   
01241   142.6241304   0.0024856   0.0031912   142.5438496   0.0024789   71.1872649   47.4581766   0.0002229   142.5456369   0.002515   0.0032208   142.6497392   0.0025085   
01242   143.0150157   0.0024859   0.0031934   142.9361827   0.0024792   71.3831205   47.588747   0.0002235   142.9926142   0.002515   0.003223   143.1004617   0.0025085   
01243   143.4141401   0.0024861   0.0031956   143.3366357   0.0024794   71.5830744   47.7220496   0.0002241   143.3911899   0.0025152   0.0032252   143.5005795   0.0025087   
01244   134.1931984   0.0025496   0.0032126   134.0458808   0.0025428   66.9425096   44.6283397   0.0002096   133.7894729   0.0025809   0.0032424   133.7890262   0.0025743   
01245   134.6117285   0.0025497   0.0032148   134.4668501   0.0025429   67.1527647   44.7685098   0.0002102   134.2313944   0.0025809   0.0032446   134.2223242   0.0025743   
01246   135.0452665   0.0025498   0.003217   134.9022661   0.0025429   67.3702196   44.9134798   0.0002109   134.6672127   0.0025809   0.0032467   134.6605399   0.0025743   
01247   135.4776113   0.0025498   0.0032192   135.3365614   0.002543   67.5871191   45.0580794   0.0002116   135.0500805   0.0025812   0.0032489   135.0519638   0.0025745   
01248   135.9069446   0.0025498   0.0032214   135.7680149   0.002543   67.802573   45.2017153   0.0002123   135.4871682   0.0025812   0.0032511   135.4913942   0.0025745   
01249   136.3420713   0.0025498   0.0032236   136.2049846   0.002543   68.0207932   45.3471954   0.000213   135.9225565   0.0025812   0.0032533   135.9291394   0.0025745   
01250   136.7719738   0.0025499   0.0032258   136.6369643   0.0025431   68.2365204   45.4910136   0.0002136   136.3605393   0.0025812   0.0032555   136.3654619   0.0025745   
01251   137.1975849   0.0025499   0.003228   137.0649143   0.0025431   68.4502332   45.6334888   0.0002143   136.7917359   0.0025812   0.0032577   136.7887269   0.0025746   
01252   137.6203867   0.00255   0.0032302   137.4899046   0.0025432   68.6624271   45.7749514   0.000215   137.2307899   0.0025812   0.0032599   137.2295388   0.0025746   
01253   138.0547616   0.00255   0.0032324   137.9261345   0.0025432   68.880274   45.9201826   0.0002156   137.6666985   0.0025812   0.0032621   137.6662311   0.0025746   
01254   138.4903097   0.0025501   0.0032346   138.3634559   0.0025432   69.0986602   46.0657734   0.0002163   138.101475   0.0025812   0.0032643   138.1041829   0.0025746   
01255   138.9244337   0.0025501   0.0032368   138.7994004   0.0025433   69.316362   46.210908   0.000217   138.5380245   0.0025812   0.0032665   138.5413258   0.0025746   
01256   139.3323228   0.0025503   0.003239   139.2095478   0.0025434   69.5211568   46.3474379   0.0002177   138.9811054   0.0025812   0.0032687   138.9878765   0.0025746   
01257   139.7467761   0.0025504   0.0032413   139.6266795   0.0025436   69.7294204   46.4862803   0.0002183   139.4219842   0.0025812   0.0032709   139.4318821   0.0025746   
01258   140.167362   0.0025505   0.0032435   140.0495733   0.0025437   69.9405417   46.6270278   0.000219   139.8613757   0.0025812   0.0032731   139.8749632   0.0025746   
01259   140.5475997   0.0025509   0.0032457   140.433181   0.002544   70.1321037   46.7547358   0.0002196   140.2254364   0.0025817   0.0032754   140.2457369   0.002575   
01260   140.9820662   0.0025509   0.0032479   140.8694553   0.0025441   70.3499794   46.8999863   0.0002202   140.6615142   0.0025817   0.0032776   140.683014   0.002575   
01261   141.3972302   0.002551   0.0032502   141.2870043   0.0025442   70.5584984   47.0389989   0.0002209   141.1025412   0.0025817   0.0032798   141.1268024   0.002575   
01262   141.8166967   0.0025511   0.0032524   141.7084159   0.0025443   70.768928   47.1792853   0.0002216   141.3459038   0.0025826   0.003282   141.4020672   0.0025759   
01263   142.2425669   0.0025512   0.0032546   142.136423   0.0025444   70.9826778   47.3217852   0.0002222   141.7837765   0.0025826   0.0032842   141.8426452   0.0025759   
01264   142.6656785   0.0025513   0.0032568   142.5615253   0.0025445   71.1949287   47.4632858   0.0002229   142.2173946   0.0025826   0.0032864   142.2644294   0.002576   
01265   135.9906899   0.0025695   0.0032416   135.9028167   0.0025627   67.8705553   45.2470369   0.0002125   135.5630993   0.0025904   0.0032607   135.5498722   0.0025837   
01266   136.4140037   0.0025696   0.0032438   136.3280961   0.0025627   68.0831697   45.3887798   0.0002131   135.9977985   0.0025904   0.0032628   135.9877169   0.0025837   
01267   136.8446503   0.0025696   0.003246   136.760699   0.0025627   68.2993564   45.5329042   0.0002138   136.4245693   0.0025904   0.003265   136.4173683   0.0025837   
01268   137.2795635   0.0025696   0.0032482   137.1973047   0.0025627   68.5174105   45.6782737   0.0002145   136.8593144   0.0025904   0.0032672   136.8543743   0.0025837   
01269   137.7162347   0.0025696   0.0032503   137.635689   0.0025627   68.7363343   45.8242229   0.0002152   137.2943269   0.0025904   0.0032693   137.2916781   0.0025837   
01270   138.1513355   0.0025696   0.0032525   138.0723869   0.0025627   68.9544315   45.969621   0.0002159   137.7273536   0.0025904   0.0032715   137.7270046   0.0025837   
01271   138.5839654   0.0025696   0.0032547   138.507884   0.0025628   69.1718604   46.1145736   0.0002166   138.1645241   0.0025904   0.0032737   138.1666084   0.0025837   
01272   139.0181868   0.0025696   0.0032569   138.944103   0.0025628   69.3897162   46.2598108   0.0002172   138.5982274   0.0025904   0.0032759   138.6026649   0.0025837   
01273   139.448658   0.0025696   0.0032591   139.3759491   0.0025628   69.6052995   46.403533   0.0002179   139.0256691   0.0025904   0.003278   139.0326712   0.0025837   
01274   139.8834475   0.0025697   0.0032612   139.81215   0.0025628   69.8231203   46.5487469   0.0002186   139.4607102   0.0025904   0.0032802   139.4700533   0.0025837   
01275   140.3084564   0.0025697   0.0032634   140.2393371   0.0025628   70.0362714   46.6908476   0.0002193   139.8827124   0.0025904   0.0032823   139.8957362   0.0025837   
01276   140.730189   0.0025697   0.0032655   140.6603916   0.0025628   70.24698   46.83132   0.0002199   140.3116315   0.0025904   0.0032845   140.325111   0.0025837   
01277   141.1646409   0.0025697   0.0032677   141.096687   0.0025628   70.4648894   46.9765929   0.0002206   140.7487856   0.0025904   0.0032867   140.7634689   0.0025837   
01278   141.5896451   0.0025697   0.0032698   141.5210393   0.0025628   70.6770956   47.1180637   0.0002213   141.178829   0.0025904   0.0032888   141.1933839   0.0025837   
01279   142.0244235   0.0025697   0.003272   141.9575085   0.0025628   70.8950402   47.2633601   0.0002219   141.6118691   0.0025904   0.003291   141.6286878   0.0025837   
01280   142.3740394   0.0025697   0.0032738   142.3077303   0.0025628   71.0699492   47.3799662   0.0002225   141.9751541   0.0025904   0.0032928   141.9920464   0.0025837   
01281   142.7979291   0.0025698   0.0032759   142.7336462   0.0025629   71.2825028   47.5216686   0.0002232   142.4069503   0.0025904   0.003295   142.4266066   0.0025837   
01282   143.0445249   0.002571   0.0032784   142.9816139   0.0025641   71.4054768   47.6036512   0.0002236   142.7342253   0.0025912   0.0032975   142.7609138   0.0025845   
01283   142.9686966   0.0025744   0.0032814   142.9072426   0.0025675   71.3672719   47.5781813   0.0002234   143.1549559   0.0025922   0.0033004   143.1315514   0.0025855   
01284   143.3219592   0.0025749   0.0032837   143.2616236   0.002568   71.5442456   47.6961638   0.000224   143.2629158   0.0025939   0.0033027   143.2513646   0.0025872   
01285   139.0347842   0.0026059   0.003293   138.9473597   0.0025989   69.3893476   46.259565   0.0002172   139.010602   0.0026248   0.0033121   139.0064229   0.0026179   
01286   139.4701291   0.0026059   0.0032952   139.3845089   0.0025989   69.6076548   46.4051032   0.0002179   139.4459139   0.0026248   0.0033143   139.4441015   0.0026179   
01287   139.8974543   0.002606   0.0032974   139.8139418   0.0025989   69.822097   46.5480647   0.0002186   139.7887529   0.0026252   0.0033165   139.7831085   0.0026184   
01288   140.2985702   0.0026062   0.0032997   140.217952   0.0025992   70.0238547   46.6825698   0.0002192   140.2345719   0.0026252   0.0033187   140.2310076   0.0026184   
01289   140.7304469   0.0026062   0.0033019   140.6517586   0.0025992   70.2405057   46.8270038   0.0002199   140.6117597   0.0026255   0.0033209   140.6189963   0.0026187   
01290   141.1602274   0.0026062   0.0033041   141.083485   0.0025992   70.4560964   46.9707309   0.0002206   141.0487477   0.0026255   0.0033231   141.0585885   0.0026187   
01291   141.5969255   0.0026062   0.0033063   141.5218694   0.0025992   70.6750204   47.1166803   0.0002213   141.4837772   0.0026255   0.0033253   141.4958925   0.0026187   
01292   141.9372842   0.0026069   0.0033086   141.8671473   0.0025998   70.8474759   47.2316506   0.0002218   141.8283804   0.0026261   0.0033276   141.8364184   0.0026193   
01293   142.3732359   0.0026069   0.0033108   142.3047712   0.0025998   71.0660204   47.377347   0.0002225   142.2636612   0.0026261   0.0033298   142.2739543   0.0026193   
01294   142.7774191   0.0026071   0.003313   142.7118557   0.0026   71.2693261   47.5128841   0.0002231   142.6888082   0.0026262   0.003332   142.6999331   0.0026194   
01295   143.2049344   0.0026071   0.0033152   143.1396062   0.0026001   71.4829382   47.6552921   0.0002238   143.1230654   0.0026262   0.0033342   143.1362312   0.0026194   
01296   143.4255311   0.0026085   0.0033177   143.3605447   0.0026015   71.5932876   47.7288584   0.0002241   143.5892725   0.0026265   0.0033368   143.5802499   0.0026196   
01297   143.8430737   0.0026086   0.0033199   143.7800948   0.0026016   71.8027388   47.8684925   0.0002248   143.9661406   0.0026268   0.003339   143.9713217   0.0026199   
01298   144.1921159   0.002609   0.003322   144.1320484   0.002602   71.9784643   47.9856429   0.0002253   144.2334772   0.0026275   0.0033411   144.2536642   0.0026207   
01299   134.4351332   0.0026225   0.0032865   134.277193   0.0026154   67.0581211   44.705414   0.0002099   134.2866122   0.0026344   0.0032978   134.121994   0.0026275   
01300   134.8717396   0.0026225   0.0032887   134.7155773   0.0026154   67.277045   44.8513633   0.0002106   134.721548   0.0026344   0.0032999   134.5592981   0.0026275   
01301   135.3083521   0.0026225   0.0032908   135.1539617   0.0026154   67.495969   44.9973127   0.0002113   135.1564901   0.0026344   0.0033021   134.9966021   0.0026275   
01302   135.7449706   0.0026225   0.003293   135.592346   0.0026154   67.7148931   45.1432621   0.000212   135.5914375   0.0026344   0.0033043   135.4339062   0.0026275   
01303   136.1783604   0.0026225   0.0032952   136.027784   0.0026155   67.9323056   45.2882037   0.0002127   136.0257486   0.0026344   0.0033065   135.8708966   0.0026275   
01304   136.6090493   0.0026226   0.0032974   136.460633   0.0026155   68.1483912   45.4322608   0.0002134   136.460096   0.0026344   0.0033087   136.3083243   0.0026275   
01305   137.0456871   0.0026226   0.0032996   136.8990173   0.0026155   68.3673153   45.5782102   0.000214   136.895061   0.0026344   0.0033108   136.7456285   0.0026275   
01306   137.4760251   0.0026226   0.0033018   137.3313878   0.0026155   68.5833213   45.7222142   0.0002147   137.3262071   0.0026344   0.003313   137.178981   0.0026275   
01307   137.9126743   0.0026226   0.003304   137.7697721   0.0026155   68.802245   45.8681633   0.0002154   137.7611825   0.0026344   0.0033152   137.616285   0.0026275   
01308   138.3468435   0.0026226   0.0033061   138.2055526   0.0026155   69.0198176   46.0132117   0.0002161   138.1939664   0.0026344   0.0033174   138.0511836   0.0026275   
01309   138.7791383   0.0026226   0.0033083   138.6397466   0.0026155   69.23665   46.1577666   0.0002168   138.6289811   0.0026344   0.0033195   138.488934   0.0026275   
01310   139.2158047   0.0026226   0.0033105   139.0781309   0.0026155   69.4555739   46.303716   0.0002174   139.0639724   0.0026344   0.0033217   138.9262381   0.0026275   
01311   139.6524766   0.0026226   0.0033127   139.5165153   0.0026155   69.674498   46.4496653   0.0002181   139.4989694   0.0026344   0.0033239   139.3635425   0.0026275   
01312   140.0826355   0.0026226   0.0033149   139.9495584   0.0026156   69.8907629   46.593842   0.0002188   139.9024961   0.0026346   0.0033262   139.7758768   0.0026277   
01313   140.5147449   0.0026227   0.0033171   140.3835531   0.0026156   70.1074486   46.738299   0.0002195   140.3371729   0.0026346   0.0033284   140.213416   0.0026277   
01314   140.9500575   0.0026227   0.0033193   140.820809   0.0026156   70.3258051   46.8838701   0.0002202   140.7510956   0.0026347   0.0033306   140.6328863   0.0026278   
01315   141.3664443   0.0026228   0.0033215   141.2406999   0.0026157   70.5354825   47.023655   0.0002208   141.1373342   0.002635   0.0033328   141.0353178   0.0026281   
01316   141.797908   0.0026228   0.0033237   141.6740525   0.0026158   70.7518804   47.1679203   0.0002215   141.5738584   0.002635   0.003335   141.4741675   0.0026281   
01317   137.5356764   0.0026537   0.0033331   137.3836606   0.0026466   68.6086467   45.7390978   0.0002148   137.6027356   0.0026645   0.0033444   137.4770221   0.0026575   
01318   137.9689428   0.0026538   0.0033353   137.8188516   0.0026466   68.8259811   45.8839874   0.0002155   138.0386533   0.0026645   0.0033466   137.9153417   0.0026575   
01319   138.4055665   0.0026538   0.0033375   138.257236   0.0026466   69.0449052   46.0299368   0.0002162   138.473612   0.0026645   0.0033488   138.3526454   0.0026575   
01320   138.8375765   0.0026538   0.0033397   138.6912117   0.0026466   69.2616254   46.1744169   0.0002168   138.9098589   0.0026645   0.003351   138.7912923   0.0026575   
01321   139.2716953   0.0026538   0.0033419   139.1272447   0.0026467   69.4793811   46.3195874   0.0002175   139.345572   0.0026645   0.0033532   139.2293968   0.0026575   
01322   139.7083374   0.0026538   0.0033441   139.565629   0.0026467   69.698305   46.4655367   0.0002182   139.7805471   0.0026645   0.0033554   139.666701   0.0026575   
01323   140.1044073   0.0026541   0.0033463   139.965003   0.0026469   69.8977326   46.5984884   0.0002188   140.226984   0.0026645   0.0033576   140.1162873   0.0026575   
01324   139.8569626   0.0026586   0.0033496   139.7153934   0.0026514   69.773068   46.5153786   0.0002184   140.6227722   0.0026658   0.0033608   140.5064538   0.0026588   
01325   140.292719   0.0026586   0.0033518   140.1529475   0.0026514   69.9915776   46.6610517   0.0002191   141.058235   0.0026658   0.003363   140.9436591   0.0026588   
01326   140.6858079   0.0026589   0.003354   140.5478242   0.0026517   70.1887803   46.7925202   0.0002197   141.3618695   0.0026665   0.0033653   141.2704838   0.0026595   
01327   141.120547   0.0026589   0.0033562   140.9843642   0.0026517   70.4067804   46.9378536   0.0002204   141.7974248   0.0026665   0.0033675   141.7083065   0.0026595   
01328   141.4952935   0.0026593   0.0033585   141.3630472   0.0026521   70.5959054   47.0639369   0.000221   142.1883393   0.0026668   0.0033697   142.1001907   0.0026598   
01329   141.9319744   0.0026593   0.0033607   141.8014315   0.0026521   70.8148294   47.2098863   0.0002217   142.6233577   0.0026668   0.0033719   142.537495   0.0026598   
01330   142.2633133   0.0026599   0.003363   142.1380221   0.0026527   70.9828895   47.3219263   0.0002222   142.6034387   0.0026692   0.0033743   142.512577   0.0026622   
01331   142.671665   0.0026601   0.0033652   142.5491008   0.0026529   71.1882213   47.4588142   0.0002229   143.0484789   0.0026692   0.0033765   142.9608646   0.0026622   
01332   143.0934963   0.0026602   0.0033674   142.9739186   0.002653   71.4003549   47.6002366   0.0002235   143.4831401   0.0026692   0.0033787   143.3992165   0.0026622   
01333   143.5043199   0.0026604   0.0033697   143.3876761   0.0026532   71.6069523   47.7379682   0.0002242   143.8494952   0.0026696   0.0033809   143.7731008   0.0026626   
01334   143.7410106   0.0026616   0.0033721   143.6345744   0.0026544   71.7300141   47.8200094   0.0002246   144.2254515   0.0026698   0.003383   144.1780661   0.0026628   
01335   144.131854   0.0026619   0.0033743   144.0281957   0.0026547   71.9266038   47.9510692   0.0002252   144.6161598   0.00267   0.0033853   144.5793062   0.002663   
01336   143.997303   0.0026655   0.0033773   143.8986428   0.0026583   71.861722   47.9078147   0.000225   144.0272848   0.0026759   0.0033882   144.0085685   0.0026689   
01337   144.3656612   0.0026659   0.0033796   144.2692594   0.0026587   72.0464931   48.0309954   0.0002256   144.2175518   0.0026771   0.0033905   144.2444635   0.0026701   
01338   134.8452626   0.002731   0.003397   134.7216036   0.0027238   67.2758102   44.8505401   0.0002106   134.5692582   0.002743   0.0034081   134.6144568   0.0027359   
01339   135.2739011   0.0027311   0.0033992   135.1521918   0.0027238   67.4908733   44.9939155   0.0002113   135.0066355   0.002743   0.0034103   135.0541025   0.0027359   
01340   135.709577   0.0027311   0.0034014   135.5895838   0.0027238   67.7093297   45.1395531   0.000212   135.4418482   0.002743   0.0034125   135.4919066   0.0027359   
01341   136.1462733   0.0027311   0.0034036   136.0279681   0.0027238   67.9282538   45.2855025   0.0002127   135.876903   0.002743   0.0034146   135.9292107   0.0027359   
01342   136.5829751   0.0027311   0.0034058   136.4663525   0.0027238   68.1471778   45.4314518   0.0002134   136.3119627   0.002743   0.0034168   136.3665148   0.0027359   
01343   137.0187956   0.0027311   0.0034079   136.90388   0.0027238   68.3656535   45.5771024   0.000214   136.7469889   0.002743   0.003419   136.8042584   0.0027359   
01344   137.4555081   0.0027311   0.0034101   137.3422643   0.0027238   68.5845774   45.7230516   0.0002147   137.182059   0.002743   0.0034212   137.2415623   0.0027359   
01345   137.8922258   0.0027311   0.0034123   137.7806487   0.0027238   68.8035015   45.869001   0.0002154   137.617134   0.002743   0.0034234   137.6788667   0.0027359   
01346   138.3267292   0.0027311   0.0034145   138.2169351   0.0027239   69.0214439   46.0142959   0.0002161   138.0528149   0.002743   0.0034256   138.1168097   0.0027359   
01347   138.7634576   0.0027311   0.0034167   138.6553194   0.0027239   69.240368   46.1602453   0.0002168   138.4878993   0.002743   0.0034277   138.5541138   0.0027359   
01348   139.1988196   0.0027311   0.0034189   139.0923951   0.0027239   69.4586059   46.3057373   0.0002175   138.9237636   0.002743   0.0034299   138.9911778   0.0027359   
01349   139.6311695   0.0027312   0.0034211   139.5265573   0.0027239   69.6753517   46.4502345   0.0002181   139.3593308   0.002743   0.0034321   139.4299605   0.0027359   
01350   140.055565   0.0027312   0.0034233   139.9528924   0.002724   69.8882218   46.5921478   0.0002188   139.7981655   0.002743   0.0034343   139.8709328   0.0027359   
01351   140.4885919   0.0027313   0.0034255   140.3876753   0.002724   70.1054096   46.7369397   0.0002195   140.2344489   0.002743   0.0034365   140.3091891   0.0027359   
01352   140.9058743   0.0027314   0.0034277   140.8070622   0.0027241   70.3145044   46.8763363   0.0002201   140.6770465   0.002743   0.0034387   140.749272   0.0027359   
01353   141.3380917   0.0027314   0.0034299   141.2411156   0.0027242   70.5313256   47.0208838   0.0002208   141.1134761   0.002743   0.0034409   141.1879033   0.0027359   
01354   141.7520477   0.0027316   0.0034321   141.6571555   0.0027243   70.7393961   47.1595974   0.0002215   141.560226   0.002743   0.0034431   141.6268689   0.0027359   
01355   142.1876054   0.0027316   0.0034343   142.0943   0.0027243   70.9577027   47.3051351   0.0002221   141.9957923   0.002743   0.0034453   142.0645809   0.0027359   
01356   142.6010637   0.0027317   0.0034366   142.509944   0.0027245   71.1658691   47.4439127   0.0002228   142.3734614   0.0027433   0.0034475   142.4411762   0.0027362   
01357   143.0011558   0.002732   0.0034388   142.9127028   0.0027247   71.3676621   47.5784414   0.0002234   142.7731446   0.0027436   0.0034498   142.8321111   0.0027365   
01358   143.4372605   0.002732   0.003441   143.3504331   0.0027247   71.5862761   47.7241841   0.0002241   143.207232   0.0027436   0.0034519   143.268455   0.0027365   
01359   143.8642347   0.002732   0.0034432   143.7791726   0.0027247   71.8003608   47.8669072   0.0002248   143.6438686   0.0027436   0.0034541   143.7068985   0.0027365   
01360   144.2901184   0.0027321   0.0034454   144.2071017   0.0027248   72.0140528   48.0093685   0.0002255   144.0821759   0.0027436   0.0034563   144.1474341   0.0027365   
01361   144.7069567   0.0027322   0.0034476   144.6247944   0.0027249   72.2227127   48.1484751   0.0002261   144.404454   0.0027441   0.0034585   144.4927369   0.002737   
01362   145.0074985   0.002733   0.0034499   144.9302196   0.0027258   72.3749531   48.2499687   0.0002266   144.8294041   0.0027443   0.0034609   144.9271306   0.0027372   
01363   145.2630455   0.002734   0.0034523   145.1902877   0.0027268   72.5052091   48.3368061   0.000227   145.2849761   0.0027443   0.0034632   145.3717484   0.0027372   
01364   145.6343704   0.0027344   0.0034545   145.5633902   0.0027272   72.6914105   48.4609403   0.0002276   145.5582351   0.0027452   0.0034654   145.664602   0.0027381   
01365   137.2306774   0.0027927   0.0034703   137.0916426   0.0027852   68.4598361   45.6398907   0.0002143   136.4929664   0.0028071   0.0034814   136.4875609   0.0027999   
01366   137.6664349   0.0027927   0.0034725   137.5291983   0.0027853   68.6783462   45.7855642   0.000215   136.9280959   0.0028071   0.0034836   136.9251001   0.0027999   
01367   138.0782557   0.0027928   0.0034747   137.9430722   0.0027854   68.8850472   45.9233648   0.0002157   137.3682728   0.0028071   0.0034858   137.3702654   0.0027999   
01368   138.5026202   0.0027929   0.0034769   138.3696357   0.0027855   69.0980395   46.0653597   0.0002163   137.7869734   0.0028072   0.003488   137.7888364   0.0028   
01369   138.9364732   0.0027929   0.0034791   138.8053441   0.0027855   69.3156276   46.2104184   0.000217   138.2227072   0.0028072   0.0034902   138.2268233   0.0028   
01370   139.368007   0.002793   0.0034813   139.2388061   0.0027855   69.5320869   46.3547246   0.0002177   138.659045   0.0028072   0.0034924   138.6656537   0.0028   
01371   139.7940851   0.002793   0.0034835   139.6667352   0.0027856   69.7457934   46.4971956   0.0002184   139.096691   0.0028072   0.0034946   139.105838   0.0028   
01372   140.228206   0.002793   0.0034857   140.1026079   0.0027856   69.9634603   46.6423069   0.000219   139.5091981   0.0028073   0.0034968   139.5149583   0.0028001   
01373   140.6527805   0.0027931   0.0034879   140.5293603   0.0027857   70.1765324   46.7843549   0.0002197   139.8807717   0.0028077   0.003499   139.8873431   0.0028004   
01374   141.0879915   0.0027931   0.0034901   140.9663431   0.0027857   70.3947535   46.9298357   0.0002204   140.3160992   0.0028077   0.0035012   140.3250814   0.0028004   
01375   141.5096006   0.0027932   0.0034923   141.3901939   0.0027858   70.6064276   47.0709518   0.0002211   140.754972   0.0028077   0.0035034   140.7666835   0.0028004   
01376   141.7406644   0.0027946   0.0034948   141.6248241   0.0027871   70.7232802   47.1488535   0.0002214   141.2523087   0.0028077   0.0035059   141.2637089   0.0028004   
01377   136.1805097   0.0028339   0.0035062   136.0501551   0.0028263   67.9393447   45.2928965   0.0002127   135.9963614   0.0028454   0.0035173   136.0489179   0.002838   
01378   136.6154966   0.0028339   0.0035083   136.486953   0.0028263   68.1574751   45.4383167   0.0002134   136.4318541   0.0028454   0.0035195   136.4866903   0.002838   
01379   137.0521645   0.0028339   0.0035105   136.9253373   0.0028263   68.376399   45.584266   0.0002141   136.8668707   0.0028454   0.0035217   136.9239943   0.002838   
01380   137.4875786   0.0028339   0.0035127   137.3625351   0.0028263   68.5947304   45.7298203   0.0002148   137.302235   0.0028454   0.0035239   137.3616529   0.002838   
01381   137.9190135   0.0028339   0.0035149   137.7957786   0.0028264   68.8111048   45.8740699   0.0002154   137.7386618   0.0028454   0.0035261   137.8002932   0.002838   
01382   138.3400359   0.002834   0.0035171   138.2191314   0.0028265   69.02253   46.01502   0.0002161   138.1779348   0.0028454   0.0035283   138.2423139   0.002838   
01383   138.7767285   0.002834   0.0035193   138.6575158   0.0028265   69.2414542   46.1609695   0.0002168   138.6129745   0.0028454   0.0035305   138.679618   0.002838   
01384   139.2039122   0.0028341   0.0035215   139.0867052   0.0028265   69.4558204   46.3038803   0.0002175   139.0501432   0.0028454   0.0035326   139.1203802   0.002838   
01385   139.6091968   0.0028343   0.0035238   139.4953815   0.0028267   69.6599127   46.4399418   0.0002181   139.4940099   0.0028454   0.0035349   139.5664906   0.002838   
01386   140.0352719   0.0028343   0.003526   139.9236325   0.0028268   69.8737741   46.5825161   0.0002188   139.8036416   0.002846   0.0035371   139.8917083   0.0028386   
01387   140.446707   0.0028345   0.0035282   140.3377934   0.0028269   70.0806224   46.7204149   0.0002194   140.245672   0.002846   0.0035393   140.3363265   0.0028386   
01388   140.8477786   0.0028347   0.0035304   140.7413509   0.0028272   70.2822161   46.8548107   0.00022   140.6775961   0.002846   0.0035415   140.7706745   0.0028387   
01389   141.2827867   0.0028347   0.0035326   141.1780751   0.0028272   70.5003123   47.0002082   0.0002207   141.1132691   0.002846   0.0035437   141.2083339   0.0028387   
01390   141.6789905   0.002835   0.0035349   141.5765736   0.0028274   70.6993693   47.1329128   0.0002213   141.3550062   0.002847   0.003546   141.4676466   0.0028397   
01391   142.1126071   0.002835   0.0035371   142.0119783   0.0028275   70.9168053   47.2778702   0.000222   141.7910447   0.002847   0.0035481   141.9057834   0.0028397   
01392   141.5696582   0.0028414   0.0035407   141.4758895   0.0028338   70.6488392   47.0992261   0.0002212   140.8003848   0.0028559   0.0035518   140.8191688   0.0028485   
01393   142.0055286   0.0028414   0.0035429   141.9133957   0.0028338   70.8673208   47.2448805   0.0002219   141.2357557   0.0028559   0.003554   141.2567424   0.0028485   
01394   142.4417937   0.0028414   0.0035451   142.3512756   0.0028338   71.0859922   47.3906615   0.0002226   141.671024   0.0028559   0.0035562   141.6942068   0.0028485   
01395   142.8766994   0.0028414   0.0035473   142.7878534   0.0028338   71.3040133   47.5360089   0.0002232   142.1067251   0.0028559   0.0035584   142.132032   0.0028485   
01396   143.3041397   0.0028415   0.0035495   143.2170571   0.0028339   71.5183625   47.6789083   0.0002239   142.4936927   0.0028561   0.0035606   142.5272562   0.0028487   
01397   143.6958523   0.0028417   0.0035518   143.6112407   0.0028342   71.7153369   47.8102246   0.0002245   142.9402084   0.0028561   0.0035628   142.977027   0.0028487   
01398   144.0848016   0.002842   0.003554   144.0029407   0.0028345   71.9112629   47.9408419   0.0002251   143.3593632   0.0028562   0.003565   143.4005033   0.0028489   
01399   144.4868063   0.0028422   0.0035562   144.4067873   0.0028347   72.1127086   48.0751391   0.0002258   143.7999812   0.0028562   0.0035672   143.8428309   0.0028489   
01400   144.7577977   0.0028426   0.0035579   144.6705916   0.002835   72.2449124   48.163275   0.0002262   144.0228184   0.0028571   0.0035692   144.0589686   0.0028497   
01401   144.1217503   0.0028495   0.0035617   144.0826504   0.0028419   71.9519653   47.9679769   0.0002253   143.5065582   0.0028643   0.0035741   143.7016496   0.0028569   
01402   144.5515497   0.0028495   0.0035639   144.5142116   0.0028419   72.1674753   48.1116502   0.0002259   143.9439252   0.0028643   0.0035763   144.1410217   0.0028569   
01403   144.9740782   0.0028496   0.0035661   144.9386397   0.002842   72.3793899   48.2529266   0.0002266   144.3741556   0.0028644   0.0035785   144.5716016   0.002857   
01404   145.4010082   0.0028497   0.0035683   145.3673418   0.0028421   72.5934113   48.3956076   0.0002273   144.8101368   0.0028644   0.0035807   145.0104335   0.002857   
01405   145.7148222   0.0028505   0.0035707   145.6836853   0.0028429   72.7514067   48.5009378   0.0002278   145.0403617   0.0028655   0.0035831   145.2721916   0.0028581   
01406   138.5055044   0.0029007   0.0035846   138.4349913   0.002893   69.1304033   46.0869355   0.0002164   137.9116493   0.0029155   0.0035972   138.0962937   0.002908   
01407   138.8648237   0.0029012   0.0035869   138.79841   0.0028935   69.3119202   46.2079468   0.000217   138.2740335   0.002916   0.0035995   138.4678865   0.0029085   
01408   139.3015528   0.0029012   0.0035891   139.2367943   0.0028935   69.5308443   46.3538962   0.0002177   138.7091474   0.002916   0.0036017   138.9051905   0.0029085   
01409   139.7364633   0.0029012   0.0035913   139.6734552   0.0028935   69.7489202   46.4992801   0.0002184   139.1448096   0.002916   0.0036038   139.3430404   0.0029085   
01410   140.1732027   0.0029012   0.0035935   140.1118396   0.0028935   69.9678442   46.6452294   0.0002191   139.5799324   0.002916   0.003606   139.7803445   0.0029085   
01411   140.6099471   0.0029012   0.0035956   140.5502239   0.0028935   70.1867681   46.7911787   0.0002197   140.0150599   0.002916   0.0036082   140.2176487   0.0029085   
01412   141.0427215   0.0029012   0.0035978   140.9847056   0.0028935   70.4037317   46.9358211   0.0002204   140.3990953   0.0029162   0.0036104   140.6030501   0.0029087   
01413   141.4781711   0.0029012   0.0036   141.4218592   0.0028935   70.6220391   47.0813594   0.0002211   140.8345579   0.0029162   0.0036126   141.0407607   0.0029087   
01414   141.9100534   0.0029013   0.0036022   141.8553952   0.0028935   70.8385141   47.2256761   0.0002218   141.2712917   0.0029162   0.0036148   141.4798819   0.0029087   
01415   142.3468181   0.0029013   0.0036044   142.2937796   0.0028935   71.057438   47.3716253   0.0002225   141.7064363   0.0029162   0.003617   141.9171862   0.0029087   
01416   142.7705283   0.0029014   0.0036066   142.7196101   0.0028936   71.2700815   47.5133876   0.0002231   142.1437532   0.0029162   0.0036192   142.360147   0.0029087   
01417   143.1900797   0.0029015   0.0036088   143.1409795   0.0028937   71.4804969   47.6536646   0.0002238   142.5845974   0.0029162   0.0036214   142.8027308   0.0029087   
01418   143.6243098   0.0029015   0.003611   143.5769242   0.0028938   71.6982221   47.7988147   0.0002245   143.020496   0.0029162   0.0036236   143.2408072   0.0029087   
01419   144.0528389   0.0029015   0.0036132   144.0072599   0.0028938   71.9131362   47.9420908   0.0002252   143.4574032   0.0029162   0.0036257   143.6800544   0.0029087   
01420   144.4697966   0.0029017   0.0036155   144.4264139   0.0028939   72.1224274   48.0816183   0.0002258   143.851757   0.0029165   0.003628   144.080714   0.0029089   
01421   144.8939971   0.0029017   0.0036177   144.8524866   0.002894   72.3352602   48.2235068   0.0002265   144.2908923   0.0029165   0.0036302   144.5222597   0.0029089   
01422   145.2221636   0.002902   0.0036195   145.1729824   0.0028943   72.4956341   48.3304228   0.000227   144.7080356   0.0029165   0.0036322   144.9257465   0.0029089   
01423   145.6345295   0.0029022   0.0036218   145.5873919   0.0028944   72.7026517   48.4684344   0.0002276   145.1507393   0.0029165   0.0036344   145.3718151   0.0029089   
01424   146.0183745   0.0029025   0.003624   145.9735247   0.0028947   72.8954127   48.5969418   0.0002282   145.5968668   0.0029165   0.0036367   145.8207174   0.0029089   
01425   138.2481736   0.0029563   0.0036387   138.1690823   0.0029484   68.9996158   45.9997438   0.000216   137.9655613   0.0029706   0.0036523   138.0796568   0.002963   
01426   138.664121   0.0029564   0.0036409   138.588135   0.0029485   69.2087624   46.1391749   0.0002167   138.4060226   0.0029706   0.0036545   138.5226949   0.002963   
01427   139.1008413   0.0029564   0.0036431   139.0265193   0.0029485   69.4276864   46.2851243   0.0002174   138.8411232   0.0029706   0.0036567   138.9599989   0.002963   
01428   139.5371505   0.0029564   0.0036453   139.4642067   0.0029485   69.6462262   46.4308175   0.0002181   139.2759693   0.0029706   0.0036588   139.3970247   0.002963   
01429   139.9738811   0.0029564   0.0036475   139.902591   0.0029485   69.86515   46.5767667   0.0002187   139.7110791   0.0029706   0.003661   139.8343288   0.002963   
01430   140.4106167   0.0029564   0.0036497   140.3409754   0.0029485   70.0840742   46.7227161   0.0002194   140.1461934   0.0029706   0.0036632   140.2716331   0.002963   
01431   140.8314044   0.0029565   0.0036519   140.7645876   0.0029486   70.2957643   46.8638428   0.0002201   140.583119   0.0029706   0.0036654   140.7118108   0.002963   
01432   141.2681525   0.0029565   0.0036541   141.2029718   0.0029486   70.5146882   47.0097922   0.0002208   141.0182422   0.0029706   0.0036676   141.1491152   0.002963   
01433   141.7049055   0.0029565   0.0036563   141.6413562   0.0029486   70.7336123   47.1557415   0.0002215   141.4533699   0.0029706   0.0036698   141.5864193   0.002963   
01434   142.1416633   0.0029565   0.0036585   142.0797406   0.0029486   70.9525362   47.3016908   0.0002221   141.8885022   0.0029706   0.003672   142.0237233   0.002963   
01435   142.5655229   0.0029566   0.0036607   142.5052942   0.0029487   71.1653854   47.4435902   0.0002228   142.3306159   0.0029706   0.0036742   142.4682979   0.002963   
01436   142.9273238   0.002957   0.003663   142.8729099   0.0029492   71.3493415   47.5662277   0.0002234   142.4523483   0.0029723   0.0036766   142.6159392   0.0029647   
01437   143.3633945   0.002957   0.0036652   143.3106288   0.0029492   71.5679092   47.7119395   0.0002241   142.8889522   0.0029723   0.0036788   143.0534964   0.0029647   
01438   143.7925965   0.0029571   0.0036674   143.7423714   0.0029492   71.7833261   47.8555507   0.0002247   143.323039   0.0029723   0.0036809   143.4902438   0.0029647   
01439   144.2239573   0.0029571   0.0036695   144.1758713   0.0029493   71.9997666   47.9998444   0.0002254   143.7565442   0.0029723   0.0036831   143.925909   0.0029647   
01440   144.657659   0.0029571   0.0036717   144.6112181   0.0029493   72.2171741   48.1447827   0.0002261   144.1938457   0.0029723   0.0036853   144.3629371   0.0029647   
01441   145.0764412   0.0029572   0.0036739   145.0339224   0.0029494   72.4285053   48.2856702   0.0002268   144.6286148   0.0029723   0.0036875   144.7986643   0.0029647   
01442   145.5034818   0.0029573   0.0036761   145.4627792   0.0029494   72.6425836   48.4283891   0.0002274   145.0303596   0.0029725   0.0036897   145.2015768   0.0029649   
01443   145.9090618   0.0029575   0.0036784   145.8709215   0.0029496   72.8464733   48.5643155   0.0002281   145.4804329   0.0029725   0.0036919   145.6483399   0.0029649   
01444   146.2740745   0.0029579   0.0036806   146.238771   0.0029501   73.0293612   48.6862408   0.0002286   145.8928295   0.0029727   0.0036942   146.0662339   0.0029651   
01445   146.5965302   0.0029587   0.003683   146.5646055   0.0029508   73.192353   48.794902   0.0002292   146.3580681   0.0029727   0.0036966   146.5311151   0.0029651   
01446   146.6733283   0.002961   0.0036857   146.6447934   0.0029531   73.2324465   48.821631   0.0002293   146.5360341   0.0029745   0.0036993   146.7270857   0.0029669   
01447   137.2636827   0.0030256   0.003703   137.1856   0.0030176   68.5075155   45.671677   0.0002145   136.8060814   0.0030411   0.0037167   136.8717686   0.0030333   
01448   137.6989317   0.0030256   0.0037052   137.622646   0.0030177   68.7257678   45.8171785   0.0002152   137.2415437   0.0030411   0.0037189   137.3094814   0.0030333   
01449   138.1124458   0.0030258   0.0037074   138.0388479   0.0030178   68.9335   45.9556666   0.0002158   137.6839125   0.0030411   0.0037211   137.752485   0.0030333   
01450   138.5425083   0.0030258   0.0037096   138.4709994   0.0030178   69.1492963   46.0995309   0.0002165   138.0634842   0.0030413   0.0037233   138.1392419   0.0030336   
01451   138.9792303   0.0030258   0.0037118   138.9093838   0.0030178   69.3682203   46.2454802   0.0002172   138.4985577   0.0030413   0.0037255   138.5765462   0.0030336   
01452   139.4148628   0.0030258   0.003714   139.3467593   0.0030178   69.5866406   46.3910937   0.0002179   138.9339381   0.0030413   0.0037277   139.0141474   0.0030336   
01453   139.7879395   0.0030262   0.0037163   139.7238747   0.0030182   69.7747442   46.5164961   0.0002185   139.385444   0.0030413   0.00373   139.4719858   0.0030336   
01454   140.2090126   0.0030263   0.0037185   140.1472157   0.0030183   69.9861504   46.6574336   0.0002191   139.8239433   0.0030413   0.0037322   139.915386   0.0030336   
01455   140.6424447   0.0030263   0.0037207   140.5824223   0.0030184   70.2035137   46.8023425   0.0002198   140.2600265   0.0030413   0.0037344   140.3536061   0.0030336   
01456   141.0756232   0.0030264   0.0037229   141.017383   0.0030184   70.4207656   46.9471771   0.0002205   140.6960854   0.0030413   0.0037365   140.7916554   0.0030336   
01457   141.4784843   0.0030266   0.0037251   141.4230139   0.0030186   70.6234657   47.0823105   0.0002211   141.1414674   0.0030413   0.0037388   141.2384886   0.0030336   
01458   141.9069042   0.0030266   0.0037273   141.8533566   0.0030187   70.838365   47.2255767   0.0002218   141.5791026   0.0030413   0.003741   141.6782126   0.0030336   
01459   142.3436814   0.0030266   0.0037295   142.2917409   0.0030187   71.0572892   47.3715261   0.0002225   142.0142201   0.0030413   0.0037432   142.1155168   0.0030336   
01460   142.775532   0.0030267   0.0037317   142.7254423   0.0030187   71.273912   47.5159413   0.0002231   142.4507446   0.0030413   0.0037453   142.5542514   0.0030336   
01461   143.1998448   0.0030267   0.0037339   143.1518182   0.0030188   71.4867765   47.657851   0.0002238   142.8784602   0.0030414   0.0037475   142.9853382   0.0030337   
01462   143.5345585   0.0030274   0.0037363   143.4903179   0.0030194   71.6559718   47.7706479   0.0002243   143.212862   0.003042   0.0037499   143.3350156   0.0030343   
01463   143.9424271   0.0030276   0.0037385   143.9001032   0.0030196   71.8606366   47.9070911   0.000225   143.6576142   0.003042   0.0037521   143.7800711   0.0030343   
01464   144.3792371   0.0030276   0.0037407   144.3384875   0.0030196   72.0795608   48.0530405   0.0002257   144.0927629   0.003042   0.0037543   144.2173752   0.0030343   
01465   144.8045673   0.0030277   0.0037429   144.765678   0.0030197   72.2929458   48.1952972   0.0002263   144.5303317   0.003042   0.0037565   144.6588336   0.0030343   
01466   145.238113   0.0030277   0.0037451   145.2008737   0.0030197   72.5103047   48.3402031   0.000227   144.9665992   0.003042   0.0037587   145.0969165   0.0030343   
01467   145.641342   0.0030279   0.0037473   145.6063912   0.0030199   72.712874   48.4752493   0.0002277   145.1995259   0.003043   0.0037609   145.3583004   0.0030353   
01468   146.0607313   0.003028   0.0037495   146.0277024   0.00302   72.923301   48.615534   0.0002283   145.6405403   0.003043   0.0037631   145.7986884   0.0030353   
01469   136.5769933   0.003093   0.0037669   136.5026021   0.0030849   68.1645873   45.4430582   0.0002134   136.1182631   0.0031083   0.0037806   136.2447911   0.0031005   
01470   137.0137056   0.003093   0.0037691   136.9409864   0.0030849   68.3835114   45.5890076   0.0002141   136.5533368   0.0031083   0.0037828   136.6820952   0.0031005   
01471   137.4480316   0.003093   0.0037713   137.3771582   0.003085   68.6013109   45.7342073   0.0002148   136.9890053   0.0031083   0.003785   137.1201864   0.0031005   
01472   137.884755   0.003093   0.0037735   137.8155425   0.003085   68.8202351   45.8801567   0.0002155   137.4240891   0.0031083   0.0037872   137.5574904   0.0031005   
01473   138.3100786   0.0030931   0.0037757   138.2431145   0.003085   69.0337474   46.0224982   0.0002161   137.8624284   0.0031083   0.0037894   137.9981084   0.0031005   
01474   138.7432528   0.0030931   0.0037779   138.6781679   0.0030851   69.2510008   46.1673339   0.0002168   138.2984139   0.0031083   0.0037916   138.4365056   0.0031005   
01475   139.1736718   0.0030932   0.0037801   139.110493   0.0030851   69.466855   46.3112366   0.0002175   138.7352682   0.0031083   0.0037938   138.875722   0.0031005   
01476   139.6088699   0.0030932   0.0037823   139.5474109   0.0030851   69.6850414   46.4566942   0.0002182   139.1708016   0.0031083   0.0037959   139.3134713   0.0031005   
01477   140.0416062   0.0030932   0.0037845   139.9819905   0.0030851   69.9020617   46.6013745   0.0002189   139.6071003   0.0031083   0.0037981   139.7518426   0.0031005   
01478   140.4746103   0.0030932   0.0037866   140.416634   0.0030852   70.1191574   46.7461049   0.0002195   140.0433947   0.0031083   0.0038003   140.1902985   0.0031005   
01479   140.9113732   0.0030932   0.0037888   140.8550183   0.0030852   70.3380815   46.8920543   0.0002202   140.4785116   0.0031083   0.0038025   140.6276027   0.0031005   
01480   141.3471558   0.0030932   0.003791   141.2924702   0.0030852   70.5565237   47.0376825   0.0002209   140.9139308   0.0031083   0.0038047   141.0651895   0.0031005   
01481   141.7839283   0.0030932   0.0037932   141.7308545   0.0030852   70.7754475   47.1836316   0.0002216   141.3490563   0.0031083   0.0038069   141.5024934   0.0031005   
01482   142.2190127   0.0030932   0.0037954   142.1676375   0.0030852   70.9935424   47.3290282   0.0002223   141.7846986   0.0031083   0.003809   141.9402728   0.0031005   
01483   142.6557949   0.0030932   0.0037976   142.6060218   0.0030852   71.2124663   47.4749775   0.000223   142.2198329   0.0031083   0.0038112   142.3775768   0.0031005   
01484   143.0925817   0.0030932   0.0037998   143.0444062   0.0030852   71.4313902   47.6209268   0.0002236   142.654972   0.0031083   0.0038134   142.814881   0.0031005   
01485   143.4743092   0.0030936   0.0038021   143.4286818   0.0030855   71.6233351   47.7488901   0.0002242   143.1060969   0.0031083   0.0038157   143.2680783   0.0031005   
01486   143.9030711   0.0030936   0.0038043   143.8591425   0.0030856   71.8384096   47.892273   0.0002249   143.5437002   0.0031083   0.0038179   143.7078398   0.0031005   
01487   144.3378171   0.0030937   0.0038064   144.2955523   0.0030856   72.0563132   48.0375421   0.0002256   143.9794829   0.0031083   0.0038201   144.1457444   0.0031005   
01488   144.7731207   0.0030937   0.0038086   144.7324236   0.0030856   72.2745145   48.1830096   0.0002263   144.4145455   0.0031083   0.0038222   144.5828747   0.0031005   
01489   145.2021091   0.0030937   0.0038108   145.1630995   0.0030856   72.4896164   48.326411   0.000227   144.8515275   0.0031083   0.0038244   145.022026   0.0031005   
01490   136.9208004   0.0031509   0.0038264   136.8325757   0.0031428   68.3283018   45.5522012   0.0002139   136.9742874   0.003164   0.0038401   136.9611534   0.0031561   
01491   137.357471   0.0031509   0.0038285   137.2709601   0.0031428   68.5472259   45.6981506   0.0002146   137.4092944   0.003164   0.0038423   137.3984574   0.0031561   
01492   137.782832   0.003151   0.0038308   137.6985734   0.0031428   68.7608511   45.8405674   0.0002153   137.7655028   0.0031644   0.0038445   137.7756831   0.0031564   
01493   138.2180571   0.003151   0.0038329   138.1355778   0.0031428   68.9791122   45.9860748   0.000216   138.2009101   0.0031644   0.0038467   138.2133977   0.0031564   
01494   138.6547459   0.003151   0.0038351   138.5739622   0.0031428   69.1980364   46.1320243   0.0002167   138.6359368   0.0031644   0.0038488   138.6507018   0.0031564   
01495   139.0714581   0.0031511   0.0038374   138.9932627   0.003143   69.4074753   46.2716502   0.0002173   139.0763796   0.0031644   0.0038511   139.0934682   0.0031564   
01496   139.5081606   0.0031511   0.0038395   139.4316469   0.003143   69.6263995   46.4175996   0.000218   139.5114192   0.0031644   0.0038532   139.5307724   0.0031564   
01497   139.9448683   0.0031511   0.0038417   139.8700313   0.003143   69.8453235   46.563549   0.0002187   139.9464637   0.0031644   0.0038554   139.9680768   0.0031564   
01498   140.3791408   0.0031512   0.0038439   140.3060638   0.003143   70.0630763   46.7087175   0.0002194   140.3821862   0.0031644   0.0038576   140.4061029   0.0031564   
01499   140.8074071   0.0031512   0.0038461   140.7352437   0.003143   70.2773924   46.8515949   0.00022   140.704068   0.0031649   0.0038598   140.7421135   0.003157   
01500   141.2380982   0.0031512   0.0038483   141.1678033   0.0031431   70.4934306   46.9956204   0.0002207   141.1209136   0.003165   0.003862   141.1523557   0.0031571   
01501   141.667554   0.0031513   0.0038505   141.5991356   0.0031431   70.7088094   47.1392062   0.0002214   141.5580945   0.003165   0.0038642   141.5918803   0.0031571   
01502   142.1031149   0.0031513   0.0038527   142.0363815   0.0031431   70.9271651   47.2847767   0.0002221   141.9933219   0.003165   0.0038664   142.0295215   0.0031571   
01503   142.5061089   0.0031515   0.0038549   142.4421664   0.0031433   71.1299592   47.4199728   0.0002227   142.4382479   0.003165   0.0038686   142.4766071   0.0031571   
01504   142.9423312   0.0031515   0.0038571   142.8800059   0.0031433   71.3486072   47.5657381   0.0002234   142.8731079   0.003165   0.0038708   142.9136222   0.0031571   
01505   143.3742003   0.0031515   0.0038593   143.3136867   0.0031433   71.5652599   47.7101733   0.0002241   143.2833426   0.0031651   0.003873   143.323695   0.0031572   
01506   143.8005192   0.0031516   0.0038615   143.7420658   0.0031434   71.7791393   47.8527596   0.0002247   143.7215438   0.0031651   0.0038752   143.7637921   0.0031572   
01507   144.2119245   0.0031518   0.0038637   144.1555049   0.0031436   71.9853636   47.9902424   0.0002254   144.1396155   0.0031653   0.0038774   144.1825144   0.0031573   
01508   144.6320049   0.0031519   0.003866   144.5775049   0.0031437   72.1958949   48.1305966   0.000226   144.5783032   0.0031653   0.0038796   144.6218498   0.0031573   
01509   144.8536255   0.0031531   0.0038683   144.8079048   0.0031449   72.3115328   48.2076885   0.0002264   144.9926757   0.0031653   0.0038817   145.051416   0.0031573   
01510   145.2904069   0.0031531   0.0038705   145.2462891   0.0031449   72.5304568   48.3536379   0.0002271   145.4277983   0.0031653   0.0038839   145.4887203   0.0031573   
01511   145.7108033   0.0031532   0.0038727   145.6687857   0.003145   72.7412788   48.4941858   0.0002277   145.8664524   0.0031653   0.0038861   145.9305733   0.0031573   
01512   146.0823915   0.0031536   0.003875   146.0448964   0.0031454   72.9290923   48.6193949   0.0002283   146.3101768   0.0031653   0.0038883   146.372652   0.0031573   
01513   137.619888   0.0032119   0.0038908   137.5535424   0.0032036   68.6898289   45.7932193   0.0002151   137.7306467   0.0032242   0.0039042   137.7705051   0.0032163   
01514   138.056604   0.0032119   0.003893   137.9919267   0.0032036   68.9087531   45.9391687   0.0002157   138.1657009   0.0032242   0.0039064   138.207809   0.0032163   
01515   138.4920496   0.0032119   0.0038951   138.4291238   0.0032036   69.1270617   46.0847078   0.0002164   138.6010994   0.0032242   0.0039086   138.6454939   0.0032163   
01516   138.9287761   0.0032119   0.0038973   138.8675082   0.0032036   69.3459859   46.2306572   0.0002171   139.0361628   0.0032242   0.0039108   139.082798   0.0032163   
01517   139.3655078   0.0032119   0.0038995   139.3058926   0.0032036   69.5649098   46.3766065   0.0002178   139.4712313   0.0032242   0.0039129   139.5201023   0.0032163   
01518   139.7998662   0.0032119   0.0039017   139.7420534   0.0032036   69.7827031   46.5218021   0.0002185   139.9069581   0.0032242   0.0039151   139.9581038   0.0032163   
01519   140.2329383   0.0032119   0.0039039   140.176993   0.0032036   69.9999098   46.6666066   0.0002192   140.3430199   0.0032242   0.0039173   140.3964632   0.0032163   
01520   140.6687701   0.0032119   0.0039061   140.6145157   0.0032036   70.2183854   46.812257   0.0002198   140.7784132   0.0032242   0.0039195   140.8339751   0.0032163   
01521   141.1044098   0.0032119   0.0039083   141.0518136   0.0032037   70.4367667   46.9578445   0.0002205   141.2138864   0.0032242   0.0039217   141.2715634   0.0032163   
01522   141.5377772   0.0032119   0.0039105   141.4869419   0.0032037   70.6540565   47.1027044   0.0002212   141.6500996   0.0032242   0.0039239   141.709658   0.0032163   
01523   141.973297   0.0032119   0.0039127   141.9241316   0.0032037   70.8723588   47.2482392   0.0002219   142.0856235   0.0032242   0.003926   142.1472517   0.0032163   
01524   142.4100649   0.0032119   0.0039149   142.362516   0.0032037   71.091283   47.3941887   0.0002226   142.5207246   0.0032242   0.0039282   142.5845558   0.0032163   
01525   142.8164904   0.0032121   0.0039171   142.771555   0.0032039   71.2954487   47.5302991   0.0002232   142.9650073   0.0032242   0.0039305   143.0306262   0.0032163   
01526   143.2525468   0.0032121   0.0039193   143.2092445   0.0032039   71.5140102   47.6760068   0.0002239   143.4003175   0.0032242   0.0039326   143.4681508   0.0032163   
01527   143.6887076   0.0032121   0.0039215   143.6470259   0.0032039   71.7326192   47.8217462   0.0002246   143.8355965   0.0032242   0.0039348   143.905656   0.0032163   
01528   144.1254973   0.0032121   0.0039237   144.0854103   0.0032039   71.9515432   47.9676955   0.0002253   144.2707153   0.0032242   0.003937   144.34296   0.0032163   
01529   144.5605199   0.0032122   0.0039259   144.5220897   0.0032039   72.1696384   48.1130923   0.000226   144.7063959   0.0032242   0.0039392   144.780746   0.0032163   
01530   144.9973188   0.0032122   0.0039281   144.9604741   0.0032039   72.3885622   48.2590415   0.0002266   145.1415237   0.0032242   0.0039414   145.2180497   0.0032163   
01531   145.4269199   0.0032122   0.0039303   145.3922142   0.0032039   72.6041918   48.4027945   0.0002273   145.5775137   0.0032242   0.0039436   145.6563419   0.0032163   
01532   136.7194895   0.0032722   0.0039465   136.6400246   0.0032639   68.2335698   45.4890465   0.0002136   136.555965   0.0032867   0.0039606   136.5485927   0.0032786   
01533   137.1515144   0.0032722   0.0039487   137.0737968   0.0032639   68.4502326   45.6334884   0.0002143   136.9932579   0.0032867   0.0039628   136.9862604   0.0032786   
01534   137.587362   0.0032722   0.0039509   137.511307   0.0032639   68.6687274   45.7791516   0.000215   137.4285725   0.0032867   0.003965   137.4238475   0.0032786   
01535   138.0241092   0.0032722   0.0039531   137.9496915   0.0032639   68.8876517   45.9251011   0.0002157   137.8636376   0.0032867   0.0039672   137.8611516   0.0032786   
01536   138.4608613   0.0032722   0.0039553   138.3880758   0.0032639   69.1065755   46.0710503   0.0002164   138.2987077   0.0032867   0.0039694   138.2984556   0.0032786   
01537   138.8969293   0.0032722   0.0039575   138.8257776   0.0032639   69.3251648   46.2167765   0.000217   138.7339768   0.0032867   0.0039716   138.7359857   0.0032786   
01538   139.3336913   0.0032722   0.0039597   139.264162   0.0032639   69.5440888   46.3627258   0.0002177   139.1690563   0.0032867   0.0039737   139.1732898   0.0032786   
01539   139.7698899   0.0032722   0.0039619   139.7020126   0.0032639   69.7627426   46.5084951   0.0002184   139.6043142   0.0032867   0.0039759   139.610753   0.0032786   
01540   140.2066617   0.0032722   0.0039641   140.140397   0.0032639   69.9816665   46.6544444   0.0002191   140.039403   0.0032867   0.0039781   140.0480571   0.0032786   
01541   140.6427424   0.0032722   0.0039663   140.5781088   0.0032639   70.2002627   46.8001751   0.0002198   140.4751134   0.0032867   0.0039803   140.4852239   0.0032786   
01542   141.0795238   0.0032722   0.0039685   141.0164931   0.0032639   70.4191868   46.9461245   0.0002205   140.9102113   0.0032867   0.0039825   140.9225279   0.0032786   
01543   141.5123885   0.0032723   0.0039706   141.4511605   0.0032639   70.636235   47.0908233   0.0002212   141.3464977   0.0032867   0.0039847   141.360919   0.0032786   
01544   141.9486844   0.0032723   0.0039728   141.8890785   0.0032639   70.8549234   47.2366156   0.0002218   141.7817542   0.0032867   0.0039868   141.7983618   0.0032786   
01545   142.3825788   0.0032723   0.003975   142.3246642   0.003264   71.0724736   47.381649   0.0002225   142.2176849   0.0032867   0.003989   142.2366821   0.0032786   
01546   142.8193796   0.0032723   0.0039772   142.7630486   0.003264   71.2913977   47.5275984   0.0002232   142.6528004   0.0032867   0.0039912   142.673986   0.0032786   
01547   143.2543589   0.0032723   0.0039794   143.1998068   0.003264   71.5094961   47.6729974   0.0002239   143.0880563   0.0032867   0.0039934   143.1115605   0.0032786   
01548   143.6904957   0.0032723   0.0039816   143.6375496   0.003264   71.7280929   47.8187286   0.0002246   143.5236009   0.0032867   0.0039956   143.5485519   0.0032786   
01549   144.1253281   0.0032723   0.0039838   144.07427   0.003264   71.9461765   47.9641177   0.0002253   143.9581253   0.0032867   0.0039977   143.9855617   0.0032786   
01550   144.5603392   0.0032723   0.003986   144.510888   0.003264   72.1642352   48.1094901   0.0002259   144.3557584   0.0032869   0.0039999   144.386046   0.0032788   
01551   144.9920766   0.0032724   0.0039882   144.9443469   0.003264   72.3807616   48.2538411   0.0002266   144.7924206   0.0032869   0.0040021   144.824808   0.0032788   
01552   145.4237776   0.0032724   0.0039904   145.3777279   0.0032641   72.5972252   48.3981501   0.0002273   145.2288353   0.0032869   0.0040043   145.263653   0.0032788   
01553   145.8600382   0.0032724   0.0039926   145.8155742   0.0032641   72.815883   48.543922   0.000228   145.6641476   0.0032869   0.0040065   145.7011223   0.0032788   
01554   146.1716563   0.0032732   0.0039949   146.1335432   0.0032649   72.9744525   48.649635   0.0002285   146.1298156   0.0032869   0.0040088   146.1682805   0.0032788   
01555   146.590446   0.0032733   0.0039971   146.5545068   0.003265   73.1845911   48.7897274   0.0002291   146.5693087   0.0032869   0.004011   146.6088577   0.0032788   
01556   146.9263768   0.0032737   0.0039992   146.8921819   0.0032654   73.3530267   48.9020178   0.0002297   146.7781245   0.003288   0.0040132   146.8150403   0.0032799   
01557   147.3318878   0.0032738   0.0040014   147.2994976   0.0032655   73.5564629   49.037642   0.0002303   147.1185685   0.0032884   0.0040153   147.158471   0.0032804   
01558   147.4017277   0.0032752   0.0040031   147.3700522   0.0032668   73.5952373   49.0634915   0.0002304   147.4670566   0.0032884   0.0040171   147.501588   0.0032804   
01559   147.7533191   0.0032756   0.0040053   147.7244537   0.0032673   73.7720182   49.1813455   0.0002309   147.9079711   0.0032884   0.0040193   147.9442242   0.0032804   
01560   148.090364   0.0032763   0.0040076   148.064268   0.0032679   73.9416704   49.2944469   0.0002315   148.0249259   0.0032901   0.0040216   148.0571795   0.0032821   
01561   140.276763   0.0033303   0.0040224   140.2268721   0.0033218   70.0269221   46.6846147   0.0002192   140.0786165   0.0033451   0.0040365   139.9844474   0.003337   
01562   140.7135934   0.0033303   0.0040246   140.6652565   0.0033218   70.2458464   46.8305643   0.0002199   140.5137504   0.0033451   0.0040387   140.4217514   0.003337   
01563   141.1504282   0.0033303   0.0040268   141.1036408   0.0033218   70.4647703   46.9765135   0.0002206   140.9488888   0.0033451   0.0040409   140.8590556   0.003337   
01564   141.5826712   0.0033303   0.004029   141.5376394   0.0033219   70.6814993   47.1209995   0.0002213   141.3855064   0.0033451   0.0040431   141.2974813   0.003337   
01565   142.0195154   0.0033303   0.0040312   141.9760237   0.0033219   70.9004234   47.2669489   0.000222   141.8206533   0.0033451   0.0040453   141.7347851   0.003337   
01566   142.4555484   0.0033303   0.0040334   142.4136387   0.0033219   71.1189616   47.412641   0.0002226   142.2560357   0.0033451   0.0040474   142.1723349   0.003337   
01567   142.8914968   0.0033303   0.0040356   142.8511619   0.0033219   71.3374591   47.5583061   0.0002233   142.6913921   0.0033451   0.0040496   142.6099595   0.003337   
01568   143.3266373   0.0033303   0.0040378   143.2878642   0.0033219   71.5555429   47.7036953   0.000224   143.1270631   0.0033451   0.0040518   143.0477723   0.003337   
01569   143.7634987   0.0033303   0.00404   143.7262486   0.0033219   71.774467   47.8496447   0.0002247   143.5622264   0.0033451   0.004054   143.4850768   0.003337   
01570   144.2003643   0.0033303   0.0040422   144.1646329   0.0033219   71.993391   47.995594   0.0002254   143.9973942   0.0033451   0.0040562   143.9223806   0.003337   
01571   144.6353859   0.0033303   0.0040443   144.6012425   0.0033219   72.2114164   48.1409443   0.0002261   144.4330528   0.0033451   0.0040584   144.3601577   0.003337   
01572   145.0690567   0.0033303   0.0040465   145.03655   0.0033219   72.4288109   48.2858739   0.0002267   144.8690012   0.0033451   0.0040605   144.7964486   0.003337   
01573   145.4849553   0.0033305   0.0040488   145.4546383   0.0033221   72.6376231   48.4250821   0.0002274   145.3104399   0.0033451   0.0040628   145.2396009   0.003337   
01574   145.9212571   0.0033305   0.004051   145.8924447   0.0033221   72.856261   48.5708407   0.0002281   145.7462964   0.0033451   0.0040649   145.6765959   0.003337   
01575   146.347613   0.0033305   0.0040532   146.3205078   0.0033221   73.0699637   48.7133091   0.0002287   146.1847823   0.0033451   0.0040671   146.1169975   0.003337   
01576   146.7601607   0.0033307   0.0040554   146.7353986   0.0033223   73.2772299   48.8514866   0.0002294   146.6275776   0.0033451   0.0040694   146.5610489   0.003337   
01577   147.1748998   0.0033308   0.0040576   147.151586   0.0033224   73.4852203   48.9901468   0.00023   147.0616553   0.0033451   0.0040715   146.9983862   0.003337   
01578   147.5856078   0.003331   0.0040598   147.5637167   0.0033225   73.69116   49.12744   0.0002307   147.5039387   0.0033451   0.0040738   147.4427085   0.003337   
01579   142.4000577   0.0033607   0.0040635   142.3957962   0.0033522   71.1114978   47.4076652   0.0002226   142.3707037   0.003382   0.0040852   142.5335612   0.0033737   
01580   142.8358996   0.0033607   0.0040657   142.8330551   0.0033522   71.3298724   47.5532483   0.0002233   142.8053572   0.003382   0.0040874   142.9701616   0.0033737   
01581   143.2727727   0.0033607   0.0040679   143.2714394   0.0033522   71.5487964   47.6991976   0.000224   143.2405473   0.003382   0.0040896   143.4074656   0.0033737   
01582   143.709422   0.0033607   0.0040701   143.7093253   0.0033522   71.7674945   47.8449963   0.0002247   143.6747482   0.003382   0.0040918   143.841044   0.0033737   
01583   144.1448982   0.0033607   0.0040723   144.1462264   0.0033522   71.9856753   47.9904502   0.0002253   144.1091491   0.003382   0.0040939   144.2773526   0.0033737   
01584   144.5797106   0.0033608   0.0040745   144.5823709   0.0033523   72.2033938   48.1355958   0.000226   144.5433897   0.003382   0.0040961   144.7083925   0.0033737   
01585   145.0074422   0.0033608   0.0040766   145.0107893   0.0033523   72.417291   48.278194   0.0002267   144.9749398   0.003382   0.0040983   145.140656   0.0033737   
01586   145.4409874   0.0033608   0.0040788   145.4459606   0.0033523   72.6346049   48.4230699   0.0002274   145.4126096   0.003382   0.0041005   145.5788563   0.0033737   
01587   145.8709979   0.0033608   0.004081   145.8775379   0.0033523   72.8501761   48.5667841   0.0002281   145.8504384   0.003382   0.0041027   146.0187371   0.0033737   
01588   146.3046281   0.0033609   0.0040832   146.3132118   0.0033523   73.0677083   48.7118055   0.0002287   146.2849692   0.003382   0.0041048   146.4557486   0.0033737   
01589   146.733301   0.0033609   0.0040854   146.7437281   0.0033524   73.282844   48.8552293   0.0002294   146.7217165   0.003382   0.004107   146.8950127   0.0033737   
01590   147.093029   0.0033614   0.0040877   147.1075649   0.0033529   73.4646504   48.9764336   0.00023   147.1872855   0.003382   0.0041093   147.3550575   0.0033737   
01591   147.5275163   0.0033614   0.0040899   147.5436008   0.0033529   73.6823478   49.1215652   0.0002307   147.6222442   0.003382   0.0041115   147.7920855   0.0033737   
01592   147.3134094   0.0033657   0.0040931   147.3249125   0.0033572   73.5727932   49.0485288   0.0002303   148.0311468   0.0033831   0.0041147   148.1935611   0.0033749   
01593   147.4492417   0.0033677   0.0040957   147.4606867   0.0033591   73.6406152   49.0937435   0.0002305   147.8470377   0.0033866   0.0041173   148.0354868   0.0033784   
01594   147.8855564   0.0033677   0.0040979   147.8984713   0.0033591   73.8592397   49.2394932   0.0002312   148.2824307   0.0033866   0.0041195   148.4729814   0.0033784   
01595   148.2545975   0.0033678   0.0040999   148.26299   0.0033592   74.0412393   49.3608262   0.0002318   148.6911363   0.0033866   0.0041216   148.8800963   0.0033784   
01596   148.6006629   0.0033681   0.0041019   148.6066578   0.0033596   74.2129755   49.475317   0.0002323   149.0639542   0.0033869   0.0041237   149.2481148   0.0033787   
01597   148.9628191   0.0033686   0.0041042   148.9719748   0.00336   74.3956791   49.5971194   0.0002329   149.5203184   0.0033869   0.004126   149.7032385   0.0033787   
01598   149.1702656   0.0033698   0.0041065   149.1824075   0.0033613   74.4998831   49.6665888   0.0002332   149.5947033   0.0033888   0.0041283   149.7904623   0.0033806   
01599   149.5293787   0.0033703   0.0041088   149.5439625   0.0033618   74.6806004   49.7870669   0.0002338   149.7224464   0.0033904   0.0041306   149.9405387   0.0033822   
01600   149.8662634   0.0033709   0.0041111   149.8837774   0.0033624   74.8503603   49.9002402   0.0002343   150.043864   0.0033911   0.0041328   150.2690182   0.0033828   
01601   150.1218385   0.0033719   0.0041134   150.1390788   0.0033634   74.9781376   49.9854251   0.0002347   149.9156885   0.003394   0.0041351   150.1406495   0.0033858   
01602   150.472514   0.0033725   0.0041157   150.4921004   0.0033639   75.1543504   50.1029002   0.0002353   150.3699062   0.003394   0.0041374   150.5845012   0.0033858   
01603   150.8480502   0.0033728   0.004118   150.8703497   0.0033643   75.3432215   50.2288143   0.0002359   150.7962909   0.0033941   0.0041396   151.0166333   0.0033858   
01604   151.0001147   0.0033746   0.0041205   151.0280507   0.0033661   75.4224424   50.2816283   0.0002361   150.9874315   0.0033956   0.0041422   151.2344506   0.0033873   
01605   151.3711476   0.003375   0.0041228   151.4012716   0.0033665   75.6085657   50.4057105   0.0002367   151.3614644   0.003396   0.0041444   151.6105762   0.0033877   
01606   146.4515671   0.0034091   0.0041321   146.4644488   0.0034005   73.1424765   48.761651   0.000229   147.0238676   0.0034276   0.004154   147.2419977   0.0034192   
01607   146.8833328   0.0034092   0.0041342   146.899021   0.0034005   73.3595111   48.9063408   0.0002296   147.4579269   0.0034276   0.0041562   147.6782504   0.0034192   
01608   147.2513817   0.0034096   0.0041365   147.274549   0.0034009   73.5469101   49.0312734   0.0002302   147.7007366   0.0034288   0.0041586   147.9217032   0.0034203   
01609   147.6863387   0.0034096   0.0041387   147.7109819   0.0034009   73.7648307   49.1765538   0.0002309   148.1360938   0.0034288   0.0041607   148.3592897   0.0034203   
01610   148.0767726   0.0034099   0.004141   148.1046631   0.0034012   73.9614712   49.3076475   0.0002315   148.5248986   0.0034293   0.0041632   148.7318799   0.0034208   
01611   148.4404487   0.0034103   0.0041433   148.4731011   0.0034017   74.1454613   49.4303076   0.0002321   148.908685   0.0034296   0.0041655   149.1305859   0.0034212   
01612   148.8531207   0.0034104   0.0041454   148.8870359   0.0034017   74.3522471   49.5681647   0.0002328   149.2868892   0.0034299   0.0041677   149.5042806   0.0034215   
01613   148.8837977   0.0034122   0.0041473   148.9212946   0.0034035   74.3691866   49.5794577   0.0002328   149.0452226   0.0034342   0.0041708   149.2762689   0.0034258   
01614   149.3165327   0.0034122   0.0041495   149.354726   0.0034035   74.585593   49.7237287   0.0002335   149.4786239   0.0034342   0.004173   149.711443   0.0034258   
01615   149.7524964   0.0034122   0.0041517   149.7921169   0.0034035   74.8039985   49.8693323   0.0002342   149.9135416   0.0034342   0.0041752   150.1483501   0.0034258   
01616   150.185184   0.0034122   0.0041539   150.2257864   0.0034035   75.0206128   50.0137419   0.0002348   150.3477081   0.0034342   0.0041773   150.5839984   0.0034258   
01617   150.617505   0.0034122   0.0041561   150.6596866   0.0034035   75.2372775   50.158185   0.0002355   150.7837362   0.0034342   0.0041795   151.022267   0.0034258   
01618   151.0217398   0.0034124   0.0041583   151.0660637   0.0034037   75.4404423   50.2936282   0.0002362   151.2222304   0.0034342   0.0041817   151.4647301   0.0034258   
01619   151.4386999   0.0034125   0.0041604   151.4837871   0.0034038   75.6484029   50.4322686   0.0002368   151.6515266   0.0034342   0.0041839   151.8965486   0.0034258   
01620   144.7333391   0.0034147   0.004129   144.7448323   0.003406   72.2817505   48.1878337   0.0002265   145.1193945   0.0034343   0.0041512   145.3236126   0.0034259   
01621   145.1652893   0.0034147   0.0041312   145.1792337   0.003406   72.4987059   48.3324706   0.0002272   145.5523628   0.0034343   0.0041534   145.7587448   0.0034259   
01622   145.595934   0.0034147   0.0041334   145.6114855   0.003406   72.7146677   48.4764451   0.0002279   145.9825457   0.0034343   0.0041556   146.190936   0.0034259   
01623   146.0328847   0.0034147   0.0041356   146.0498699   0.003406   72.9335916   48.6223944   0.0002286   146.4177858   0.0034343   0.0041577   146.6282399   0.0034259   
01624   146.4673064   0.0034147   0.0041378   146.4857702   0.003406   73.1512487   48.7674991   0.0002293   146.850292   0.0034343   0.0041599   147.0628967   0.0034259   
01625   146.8967007   0.0034148   0.0041399   146.9173275   0.003406   73.3667042   48.9111361   0.0002299   147.2815285   0.0034343   0.0041621   147.4961359   0.0034259   
01626   147.2940987   0.0034148   0.0041419   147.3157621   0.003406   73.5652762   49.0435175   0.0002306   147.6761451   0.0034343   0.004164   147.8914956   0.0034259   
01627   147.7117388   0.0034149   0.0041441   147.7380036   0.0034061   73.7761047   49.1840698   0.0002312   148.1051887   0.0034343   0.0041662   148.3238232   0.0034259   
01628   148.1463318   0.0034149   0.0041463   148.1740233   0.0034062   73.9938601   49.32924   0.0002319   148.5382366   0.0034343   0.0041684   148.7587835   0.0034259   
01629   148.5713378   0.0034149   0.0041485   148.6002562   0.0034062   74.2063139   49.4708759   0.0002326   148.9659899   0.0034343   0.0041705   149.1881942   0.0034259   
01630   149.0072408   0.0034149   0.0041506   149.0375392   0.0034062   74.424649   49.6164327   0.0002333   149.4004073   0.0034343   0.0041727   149.6245761   0.0034259   
01631   149.4314774   0.0034149   0.0041528   149.4637156   0.0034062   74.6372393   49.7581595   0.0002339   149.8344812   0.0034343   0.0041749   150.0607697   0.0034259   
01632   149.8019334   0.0034152   0.004155   149.8411076   0.0034065   74.8260204   49.8840136   0.0002345   150.2366626   0.0034343   0.0041769   150.4685422   0.0034259   
01633   150.2142019   0.0034153   0.0041571   150.2538533   0.0034066   75.0316961   50.0211307   0.0002352   150.657142   0.0034343   0.004179   150.8900635   0.0034259   
01634   150.5133978   0.0034158   0.0041592   150.5537333   0.0034071   75.1809491   50.1206327   0.0002356   151.066386   0.0034343   0.004181   151.2997161   0.0034259   
01635   150.9109138   0.0034159   0.0041612   150.9476735   0.0034072   75.3773819   50.2515879   0.0002363   151.4088542   0.0034347   0.0041832   151.6453092   0.0034263   
01636   151.3163266   0.003416   0.0041634   151.353105   0.0034073   75.579939   50.386626   0.0002369   151.8013405   0.0034349   0.0041853   152.0414468   0.0034264   
01637   143.8423076   0.0034678   0.0041776   143.8493988   0.003459   71.8316561   47.8877707   0.0002252   144.3293193   0.0034871   0.0041996   144.3976691   0.0034786   
01638   144.2629644   0.0034679   0.0041798   144.2719747   0.0034592   72.0426382   48.0284255   0.0002258   144.6556204   0.0034876   0.0042018   144.735898   0.0034791   
01639   144.6998935   0.0034679   0.004182   144.710359   0.0034592   72.2615622   48.1743748   0.0002265   145.0908146   0.0034876   0.004204   145.1732023   0.0034791   
01640   145.1368263   0.0034679   0.0041842   145.1487433   0.0034592   72.4804862   48.3203241   0.0002272   145.5260124   0.0034876   0.0042062   145.6105062   0.0034791   
01641   145.5719841   0.0034679   0.0041864   145.5854396   0.0034592   72.6986019   48.4657346   0.0002279   145.9618084   0.0034876   0.0042084   146.0481307   0.0034791   
01642   146.0081134   0.0034679   0.0041886   146.0230468   0.0034592   72.9171282   48.6114188   0.0002286   146.3972721   0.0034876   0.0042106   146.4855076   0.0034791   
01643   146.4141953   0.0034681   0.0041908   146.4311713   0.0034594   73.1211316   48.747421   0.0002292   146.8415629   0.0034876   0.0042128   146.9321305   0.0034791   
01644   146.8511448   0.0034681   0.004193   146.8695557   0.0034594   73.3400552   48.8933702   0.0002299   147.276777   0.0034876   0.004215   147.3694344   0.0034791   
01645   147.2845274   0.0034682   0.0041952   147.3044983   0.0034594   73.5573214   49.0382142   0.0002306   147.6789834   0.0034878   0.0042172   147.7797816   0.0034793   
01646   147.7204764   0.0034682   0.0041974   147.7421556   0.0034594   73.7758862   49.1839241   0.0002312   148.1139798   0.0034878   0.0042194   148.2168745   0.0034793   
01647   148.1552319   0.0034682   0.0041996   148.1784262   0.0034594   73.9936848   49.3291232   0.0002319   148.5498303   0.0034878   0.0042215   148.6548824   0.0034793   
01648   148.5910852   0.0034682   0.0042018   148.6157183   0.0034594   74.2120633   49.4747089   0.0002326   148.9853889   0.0034878   0.0042237   149.0925804   0.0034793   
01649   149.0270921   0.0034682   0.004204   149.0533228   0.0034594   74.4305892   49.6203928   0.0002333   149.4203904   0.0034878   0.0042259   149.5296615   0.0034793   
01650   149.3503863   0.0034689   0.0042063   149.3798832   0.0034601   74.593341   49.728894   0.0002338   149.6689828   0.0034888   0.0042282   149.823298   0.0034803   
01651   149.7840881   0.003469   0.0042085   149.8150849   0.0034602   74.8106545   49.8737697   0.0002345   150.1054616   0.0034888   0.0042304   150.2609488   0.0034803   
01652   150.2009207   0.0034691   0.0042107   150.2341331   0.0034603   75.0199682   50.0133121   0.0002351   150.5445091   0.0034888   0.0042326   150.7022578   0.0034803   
01653   150.6276988   0.0034691   0.004213   150.6625172   0.0034604   75.2337707   50.1558471   0.0002358   150.982721   0.0034888   0.0042348   151.1403189   0.0034803   
01654   151.0636715   0.0034691   0.0042151   151.0999874   0.0034604   75.4522758   50.3015172   0.0002365   151.4176934   0.0034888   0.004237   151.5773282   0.0034803   
01655   151.4845825   0.0034693   0.0042174   151.522729   0.0034605   75.6637109   50.4424739   0.0002372   151.85644   0.0034888   0.0042392   152.0173178   0.0034803   
01656   151.8666892   0.0034696   0.0042196   151.9078001   0.0034608   75.855888   50.570592   0.0002378   152.3010695   0.0034888   0.0042414   152.4645897   0.0034803   
01657   152.2051628   0.0034698   0.0042216   152.2485947   0.0034611   76.0266619   50.6844412   0.0002383   152.6460328   0.0034891   0.0042434   152.8074799   0.0034805   
01658   152.5703766   0.0034702   0.0042238   152.6146454   0.0034614   76.2094131   50.8062754   0.0002389   152.7741737   0.0034905   0.0042455   152.9292654   0.0034819   
01659   152.8421506   0.0034713   0.0042262   152.8872488   0.0034625   76.3458324   50.8972216   0.0002393   153.2551397   0.0034905   0.0042479   153.4127386   0.0034819   
01660   153.0732703   0.0034726   0.0042287   153.1232626   0.0034638   76.4635221   50.9756814   0.0002397   153.3768879   0.0034923   0.0042504   153.5600839   0.0034837   
01661   153.4739523   0.0034728   0.0042309   153.5265642   0.003464   76.6649412   51.1099608   0.0002403   153.7850356   0.0034925   0.0042526   153.9579341   0.0034839   
01662   145.8562787   0.0035257   0.0042453   145.8664635   0.0035167   72.838355   48.5589033   0.0002283   146.0512267   0.0035455   0.0042666   146.1517987   0.0035369   
01663   146.2931608   0.0035257   0.0042475   146.3048479   0.0035167   73.0572789   48.7048526   0.000229   146.486431   0.0035455   0.0042688   146.5891027   0.0035369   
01664   146.7291145   0.0035257   0.0042497   146.742377   0.0035167   73.2757775   48.8505183   0.0002297   146.9219082   0.0035455   0.004271   147.026661   0.0035369   
01665   147.1652162   0.0035257   0.0042519   147.1800153   0.0035167   73.4943305   48.9962203   0.0002304   147.357353   0.0035455   0.0042732   147.4641869   0.0035369   
01666   147.5931207   0.0035257   0.0042541   147.6097039   0.0035168   73.7089251   49.1392834   0.000231   147.7952374   0.0035455   0.0042754   147.9041336   0.0035369   
01667   148.027205   0.0035257   0.0042563   148.0454159   0.0035168   73.9265147   49.2843431   0.0002317   148.2312368   0.0035455   0.0042775   148.3422556   0.0035369   
01668   148.4641078   0.0035257   0.0042585   148.4838003   0.0035168   74.1454386   49.4302924   0.0002324   148.6664595   0.0035455   0.0042797   148.7795597   0.0035369   
01669   148.8775351   0.0035259   0.0042607   148.8996459   0.003517   74.3530893   49.5687262   0.0002331   149.1078287   0.0035455   0.0042819   149.2239706   0.0035369   
01670   149.3110809   0.0035259   0.0042629   149.3348504   0.003517   74.5704294   49.7136196   0.0002337   149.5428162   0.0035455   0.0042841   149.6627671   0.0035369   
01671   149.6560101   0.0035265   0.0042652   149.6844126   0.0035176   74.7450442   49.8300295   0.0002343   150.0046431   0.0035455   0.0042864   150.1272092   0.0035369   
01672   150.0917181   0.0035265   0.0042674   150.121655   0.0035176   74.9633982   49.9755988   0.000235   150.3928391   0.0035458   0.0042886   150.5198316   0.0035371   
01673   150.5240686   0.0035265   0.0042696   150.5555562   0.0035176   75.1800828   50.1200552   0.0002356   150.8294066   0.0035458   0.0042908   150.9585062   0.0035371   
01674   150.9569681   0.0035265   0.0042718   150.9899414   0.0035176   75.3970036   50.2646691   0.0002363   151.2658576   0.0035458   0.004293   151.3970462   0.0035371   
01675   151.3928956   0.0035266   0.004274   151.4273403   0.0035176   75.6154356   50.4102904   0.000237   151.7013964   0.0035458   0.0042952   151.8346512   0.0035371   
01676   151.8276425   0.0035266   0.0042762   151.8635427   0.0035176   75.8332704   50.5555136   0.0002377   152.137322   0.0035458   0.0042974   152.2724708   0.0035371   
01677   152.1750417   0.0035271   0.0042785   152.2143589   0.0035182   76.0084503   50.6723002   0.0002382   152.5964839   0.0035458   0.0042997   152.7383883   0.0035371   
01678   152.5964681   0.0035272   0.0042807   152.6378616   0.0035183   76.219952   50.8133013   0.0002389   153.0361163   0.0035458   0.0043019   153.180353   0.0035371   
01679   144.5623555   0.0035828   0.0042959   144.5700102   0.0035737   72.1900836   48.1267224   0.0002263   144.7896032   0.0036025   0.0043172   144.8911134   0.0035937   
01680   144.999231   0.0035828   0.0042981   145.0083945   0.0035737   72.4090075   48.2726717   0.000227   145.2248242   0.0036025   0.0043194   145.3284175   0.0035937   
01681   145.4267715   0.0035828   0.0043003   145.4378725   0.0035738   72.6234707   48.4156471   0.0002276   145.6611256   0.0036025   0.0043216   145.7698049   0.0035937   
01682   145.8612397   0.0035829   0.0043024   145.8739009   0.0035738   72.8412143   48.5608095   0.0002283   146.0969133   0.0036025   0.0043237   146.2080832   0.0035937   
01683   146.2966909   0.0035829   0.0043046   146.3108921   0.0035738   73.0594409   48.7062939   0.000229   146.5326169   0.0036025   0.0043259   146.6457546   0.0035937   
01684   146.732545   0.0035829   0.0043068   146.7482715   0.0035738   73.2778665   48.851911   0.0002297   146.9681565   0.0036025   0.0043281   147.0833677   0.0035937   
01685   147.1438795   0.003583   0.0043091   147.162042   0.003574   73.4844783   48.9896522   0.0002303   147.300445   0.003603   0.0043303   147.4313679   0.0035942   
01686   147.5724926   0.0035831   0.0043113   147.5924463   0.003574   73.6994196   49.1329464   0.000231   147.7381392   0.003603   0.0043325   147.8711411   0.0035942   
01687   147.9938497   0.0035832   0.0043135   148.0162363   0.0035741   73.9110521   49.2740348   0.0002317   148.1766938   0.003603   0.0043347   148.3140283   0.0035942   
01688   148.4307642   0.0035832   0.0043157   148.4546207   0.0035741   74.1299759   49.419984   0.0002324   148.6119495   0.003603   0.0043369   148.7513324   0.0035942   
01689   148.8349113   0.0035834   0.0043179   148.8618015   0.0035743   74.333328   49.555552   0.000233   149.0554755   0.003603   0.0043391   149.1993148   0.0035942   
01690   149.2697493   0.0035834   0.0043201   149.2981887   0.0035744   74.5512557   49.7008371   0.0002337   149.4913201   0.003603   0.0043413   149.6372811   0.0035942   
01691   149.7039203   0.0035834   0.0043223   149.7338917   0.0035744   74.7688522   49.8459014   0.0002344   149.9274057   0.003603   0.0043435   150.0754269   0.0035942   
01692   150.1402825   0.0035834   0.0043245   150.171733   0.0035744   74.9875046   49.9916697   0.000235   150.3628449   0.003603   0.0043457   150.5128962   0.0035942   
01693   150.5762307   0.0035834   0.0043267   150.6091214   0.0035744   75.2059318   50.1372879   0.0002357   150.7984268   0.003603   0.0043479   150.9505056   0.0035942   
01694   151.0088892   0.0035835   0.0043289   151.0433659   0.0035744   75.4227804   50.2818536   0.0002364   151.2349361   0.003603   0.0043501   151.3892091   0.0035942   
01695   151.4458343   0.0035835   0.004331   151.4817502   0.0035744   75.6417044   50.4278029   0.0002371   151.6702165   0.003603   0.0043522   151.8265129   0.0035942   
01696   151.8827828   0.0035835   0.0043332   151.9201345   0.0035744   75.8606285   50.5737523   0.0002378   152.1055006   0.003603   0.0043544   152.2638171   0.0035942   
01697   152.2911785   0.0035836   0.0043355   152.3306323   0.0035746   76.0656175   50.7104117   0.0002384   152.5488862   0.003603   0.0043566   152.709165   0.0035942   
01698   152.7100628   0.0035838   0.0043377   152.7513364   0.0035747   76.2757912   50.8505275   0.0002391   152.9907427   0.003603   0.0043589   153.1486447   0.0035942   
01699   153.0884545   0.0035841   0.0043399   153.1318947   0.0035751   76.4657605   50.9771737   0.0002397   153.4396325   0.003603   0.0043611   153.600597   0.0035942   
01700   145.9994502   0.0036022   0.0043221   145.8869522   0.0035931   72.8483262   48.5655508   0.0002283   146.9352367   0.0036194   0.0043443   146.8212381   0.0036105   
01701   146.4362406   0.0036022   0.0043243   146.3253365   0.0035931   73.0672503   48.7115002   0.000229   147.3703851   0.0036194   0.0043464   147.2585421   0.0036105   
01702   146.8586573   0.0036022   0.0043264   146.7495757   0.0035931   73.279234   48.8528227   0.0002297   147.7972621   0.0036194   0.0043486   147.6866336   0.0036105   
01703   147.2954563   0.0036022   0.0043286   147.1879601   0.0035931   73.4981581   48.998772   0.0002304   148.2324186   0.0036194   0.0043508   148.1239377   0.0036105   
01704   147.7093817   0.0036023   0.0043308   147.6047947   0.0035932   73.7062984   49.1375323   0.000231   148.6553892   0.0036194   0.0043529   148.5510094   0.0036105   
01705   148.1284535   0.0036024   0.004333   148.0269561   0.0035933   73.9173073   49.2782048   0.0002317   149.0846609   0.0036194   0.0043551   148.9804368   0.0036106   
01706   148.5627139   0.0036024   0.0043352   148.4631952   0.0035933   74.1351752   49.4234501   0.0002324   149.5193569   0.0036194   0.0043573   149.4174357   0.0036106   
01707   148.9870557   0.0036024   0.0043373   148.8897305   0.0035933   74.3481528   49.5654352   0.000233   149.9427332   0.0036194   0.0043594   149.8463998   0.0036106   
01708   149.4214048   0.0036025   0.0043395   149.3256017   0.0035933   74.5658248   49.7105498   0.0002337   150.3770834   0.0036194   0.0043616   150.2826581   0.0036106   
01709   149.845007   0.0036025   0.0043417   149.7504301   0.0035934   74.7779639   49.8519759   0.0002344   150.8092114   0.0036194   0.0043637   150.7160274   0.0036106   
01710   150.2636673   0.0036025   0.0043438   150.1721956   0.0035934   74.9886319   49.9924212   0.000235   151.2301752   0.0036194   0.0043659   151.1407502   0.0036106   
01711   150.679361   0.0036027   0.004346   150.5899491   0.0035935   75.1973107   50.1315404   0.0002357   151.5790472   0.0036199   0.0043681   151.4878099   0.0036111   
01712   151.1093232   0.0036027   0.0043482   151.0219905   0.0035936   75.4130247   50.2753498   0.0002364   152.0129689   0.0036199   0.0043702   151.9242169   0.0036111   
01713   151.5360596   0.0036028   0.0043504   151.4503739   0.0035936   75.627015   50.41801   0.000237   152.4504512   0.0036199   0.0043724   152.363763   0.0036111   
01714   151.9385897   0.003603   0.0043527   151.856332   0.0035938   75.829809   50.553206   0.0002377   152.8845966   0.0036199   0.0043746   152.8042364   0.0036111   
01715   152.3530674   0.0036031   0.0043549   152.2731757   0.003594   76.0379407   50.6919605   0.0002383   153.3242843   0.0036199   0.0043768   153.2457478   0.0036111   
01716   152.770948   0.0036032   0.0043571   152.6928112   0.0035941   76.2474474   50.8316316   0.000239   153.615132   0.0036207   0.004379   153.5287306   0.0036118   
01717   153.0118881   0.0036045   0.0043596   152.9357942   0.0035954   76.3689525   50.912635   0.0002394   154.0515991   0.003621   0.0043815   153.952504   0.0036121   
01718   153.2936308   0.0036055   0.004362   153.2221872   0.0035963   76.5112586   51.0075057   0.0002398   153.9366393   0.0036238   0.0043838   153.8691428   0.003615   
01719   143.8687984   0.0036701   0.0043793   143.7575855   0.0036609   71.7844446   47.8562964   0.000225   144.7537149   0.0036873   0.0044012   144.6660337   0.0036784   
01720   144.3055701   0.0036701   0.0043815   144.1959698   0.0036609   72.0033688   48.0022458   0.0002257   145.1888407   0.0036873   0.0044034   145.1033375   0.0036784   
01721   144.7423464   0.0036701   0.0043837   144.6343542   0.0036609   72.2222925   48.148195   0.0002264   145.6239705   0.0036873   0.0044056   145.5406419   0.0036784   
01722   145.1791273   0.0036701   0.0043858   145.0727385   0.0036609   72.4412166   48.2941444   0.0002271   146.0591046   0.0036873   0.0044078   145.977946   0.0036784   
01723   145.6159127   0.0036701   0.004388   145.5111229   0.0036609   72.6601405   48.4400937   0.0002278   146.4942428   0.0036873   0.00441   146.4152501   0.0036784   
01724   146.0413271   0.0036702   0.0043902   145.9384794   0.003661   72.8734511   48.5823007   0.0002284   146.8859848   0.0036875   0.0044122   146.8140313   0.0036786   
01725   146.4781223   0.0036702   0.0043924   146.3768638   0.003661   73.0923751   48.7282501   0.0002291   147.321134   0.0036875   0.0044143   147.2513357   0.0036786   
01726   146.9096212   0.0036702   0.0043946   146.8101312   0.003661   73.3087382   48.8724921   0.0002298   147.7576647   0.0036875   0.0044165   147.69035   0.0036786   
01727   147.3464259   0.0036702   0.0043968   147.2485156   0.003661   73.5276622   49.0184414   0.0002305   148.1928225   0.0036875   0.0044187   148.1276541   0.0036786   
01728   147.7792531   0.0036702   0.004399   147.6830632   0.003661   73.7447055   49.163137   0.0002312   148.6290704   0.0036875   0.0044209   148.566164   0.0036786   
01729   148.2160669   0.0036702   0.0044012   148.1214475   0.003661   73.9636297   49.3090865   0.0002318   149.0642362   0.0036875   0.0044231   149.0034677   0.0036786   
01730   148.645049   0.0036703   0.0044034   148.5521177   0.0036611   74.1787563   49.4525042   0.0002325   149.5016505   0.0036875   0.0044253   149.4432043   0.0036786   
01731   149.0805293   0.0036703   0.0044056   148.9891895   0.0036611   74.3970227   49.5980152   0.0002332   149.9371233   0.0036875   0.0044275   149.881036   0.0036786   
01732   149.5147745   0.0036703   0.0044078   149.4251181   0.0036611   74.6147284   49.7431523   0.0002339   150.3733211   0.0036875   0.0044296   150.3181265   0.0036786   
01733   149.9516058   0.0036703   0.00441   149.8635025   0.0036611   74.8336526   49.8891018   0.0002346   150.8085017   0.0036875   0.0044318   150.7554303   0.0036786   
01734   150.3859656   0.0036703   0.0044122   150.2994549   0.0036611   75.0513616   50.034241   0.0002352   151.2444349   0.0036875   0.004434   151.193453   0.0036786   
01735   150.8142563   0.0036704   0.0044144   150.7294583   0.0036612   75.2660839   50.1773893   0.0002359   151.6820103   0.0036875   0.0044362   151.6330936   0.0036786   
01736   151.1011389   0.0036713   0.0044168   151.019165   0.0036621   75.4106013   50.2737342   0.0002364   152.1622495   0.0036875   0.0044386   152.1178008   0.0036786   
01737   151.5366469   0.0036714   0.004419   151.456214   0.0036621   75.6288666   50.4192444   0.000237   152.5978447   0.0036875   0.0044408   152.5555296   0.0036786   
01738   151.9558205   0.0036715   0.0044212   151.8773226   0.0036623   75.8391707   50.5594472   0.0002377   153.0393334   0.0036875   0.004443   152.9973297   0.0036786   
01739   152.3926814   0.0036715   0.0044234   152.3157069   0.0036623   76.0580947   50.7053964   0.0002384   153.4745354   0.0036875   0.0044452   153.4346339   0.0036786   
01740   152.8169182   0.0036715   0.0044256   152.7421377   0.0036623   76.2710171   50.8473447   0.0002391   153.9062656   0.0036875   0.0044474   153.8690708   0.0036786   
01741   153.2204349   0.0036717   0.0044278   153.1476164   0.0036625   76.4734518   50.9823012   0.0002397   154.3509663   0.0036875   0.0044496   154.3150862   0.0036786   
01742   153.6286392   0.0036718   0.0044299   153.5576476   0.0036626   76.678389   51.118926   0.0002403   154.7746909   0.0036875   0.0044517   154.7402487   0.0036786   
01743   154.0198115   0.0036721   0.0044322   153.9522018   0.0036629   76.875122   51.2500814   0.0002409   155.0042815   0.0036887   0.0044541   154.9959596   0.0036798   
01744   147.9246681   0.0037151   0.0044444   147.8166912   0.0037057   73.8111157   49.2074104   0.0002314   148.7519492   0.0037325   0.0044664   148.6898964   0.0037235   
01745   148.3468948   0.0037151   0.0044466   148.2413907   0.0037058   74.0232048   49.3488032   0.000232   149.1903169   0.0037325   0.0044686   149.1301846   0.0037235   
01746   148.783676   0.0037151   0.0044488   148.679775   0.0037058   74.2421288   49.4947525   0.0002327   149.6254445   0.0037325   0.0044708   149.5674884   0.0037235   
01747   149.2187431   0.0037152   0.004451   149.1165451   0.0037058   74.4602456   49.6401638   0.0002334   150.0610859   0.0037325   0.0044729   150.0052845   0.0037235   
01748   149.6555335   0.0037152   0.0044532   149.5549294   0.0037058   74.6791696   49.786113   0.0002341   150.4962215   0.0037325   0.0044751   150.4425884   0.0037235   
01749   150.0898372   0.0037152   0.0044553   149.9909989   0.0037058   74.896931   49.9312873   0.0002348   150.931794   0.0037325   0.0044773   150.8805724   0.0037235   
01750   150.5247526   0.0037152   0.0044575   150.4275585   0.0037059   75.1149528   50.0766352   0.0002354   151.367378   0.0037325   0.0044795   151.3185991   0.0037235   
01751   150.9455329   0.0037153   0.0044598   150.8505647   0.003706   75.3261805   50.2174537   0.0002361   151.806892   0.0037325   0.0044817   151.7606868   0.0037235   
01752   151.3806729   0.0037153   0.0044619   151.287318   0.003706   75.5442853   50.3628569   0.0002368   152.242543   0.0037325   0.0044839   152.1983289   0.0037235   
01753   151.7175927   0.0037159   0.0044643   151.6287993   0.0037066   75.7148223   50.4765482   0.0002373   152.1134728   0.0037354   0.0044862   152.1057645   0.0037264   
01754   152.1536478   0.0037159   0.0044665   152.0664049   0.0037066   75.9333644   50.6222429   0.000238   152.5489057   0.0037354   0.0044884   152.5433156   0.0037264   
01755   152.5904794   0.0037159   0.0044687   152.5047893   0.0037066   76.1522887   50.7681925   0.0002387   152.9841041   0.0037354   0.0044906   152.9806198   0.0037264   
01756   153.0206759   0.003716   0.0044709   152.9367481   0.0037066   76.3680011   50.9120007   0.0002394   153.4208724   0.0037354   0.0044928   153.4195309   0.0037264   
01757   153.4385207   0.0037161   0.0044731   153.3564921   0.0037067   76.5775367   51.0516911   0.00024   153.620203   0.0037366   0.004495   153.6274867   0.0037275   
01758   153.7571514   0.0037168   0.0044754   153.6842012   0.0037075   76.741523   51.1610153   0.0002405   154.0449857   0.0037366   0.0044971   154.0701547   0.0037275   
01759   154.1674072   0.003717   0.0044776   154.0968679   0.0037076   76.9476357   51.2984238   0.0002412   154.4880813   0.0037366   0.0044994   154.5172611   0.0037275   
01760   144.8268793   0.0037812   0.0044948   144.6863482   0.0037718   72.247577   48.1650514   0.0002265   144.6881765   0.0038036   0.004517   144.6364337   0.0037945   
01761   145.2635743   0.0037812   0.004497   145.1247325   0.0037718   72.4665008   48.3110005   0.0002272   145.123226   0.0038036   0.0045192   145.0737378   0.0037945   
01762   145.7002743   0.0037812   0.0044992   145.5631169   0.0037718   72.6854251   48.45695   0.0002278   145.5582804   0.0038036   0.0045214   145.5110422   0.0037945   
01763   146.1369794   0.0037812   0.0045014   146.0015012   0.0037718   72.904349   48.6028993   0.0002285   145.993339   0.0038036   0.0045236   145.9483461   0.0037945   
01764   146.5736894   0.0037812   0.0045036   146.4398855   0.0037718   73.1232731   48.7488487   0.0002292   146.4284027   0.0038036   0.0045257   146.3856504   0.0037945   
01765   147.0104043   0.0037812   0.0045058   146.8782699   0.0037718   73.342197   48.894798   0.0002299   146.8634702   0.0038036   0.0045279   146.8229545   0.0037945   
01766   147.4455917   0.0037813   0.004508   147.3151835   0.0037718   73.5603913   49.0402609   0.0002306   147.2986344   0.0038036   0.0045301   147.2611729   0.0037945   
01767   147.8788263   0.0037813   0.0045102   147.7503346   0.0037718   73.7776699   49.1851132   0.0002313   147.7345964   0.0038036   0.0045323   147.6994127   0.0037945   
01768   148.3155566   0.0037813   0.0045124   148.1887189   0.0037718   73.9965938   49.3310625   0.0002319   148.1696793   0.0038036   0.0045345   148.1367169   0.0037945   
01769   148.6532069   0.0037819   0.0045147   148.5307009   0.0037725   74.1668729   49.4445819   0.0002325   148.5918788   0.0038038   0.0045368   148.5683848   0.0037947   
01770   149.0879773   0.0037819   0.0045169   148.9671603   0.0037725   74.384861   49.5899073   0.0002332   149.027581   0.0038038   0.004539   149.0062911   0.0037947   
01771   149.4996739   0.0037821   0.0045191   149.3813222   0.0037726   74.5917411   49.7278274   0.0002338   149.4680622   0.0038038   0.0045412   149.4500209   0.0037947   
01772   149.8786234   0.0037824   0.0045214   149.7653499   0.003773   74.7834951   49.8556634   0.0002344   149.7184148   0.0038048   0.0045435   149.7163965   0.0037956   
01773   150.3117221   0.0037825   0.0045236   150.2001778   0.003773   75.0007697   50.0005132   0.0002351   150.1547287   0.0038048   0.0045457   150.1545975   0.0037956   
01774   150.7464321   0.0037825   0.0045258   150.636544   0.003773   75.218742   50.145828   0.0002358   150.5904516   0.0038048   0.0045478   150.5925529   0.0037956   
01775   151.1807746   0.0037825   0.004528   151.0726954   0.003773   75.4365323   50.2910215   0.0002364   151.0253977   0.0038048   0.00455   151.0309943   0.0037956   
01776   151.418668   0.0037837   0.0045304   151.3249644   0.0037743   75.56163   50.37442   0.0002368   151.4572997   0.0038048   0.0045522   151.4905842   0.0037956   
01777   151.8454908   0.0037838   0.0045326   151.7536339   0.0037743   75.7754784   50.5169856   0.0002375   151.8348399   0.0038051   0.0045544   151.8756023   0.0037959   
01778   152.2726447   0.0037838   0.0045348   152.1825509   0.0037744   75.9894595   50.6596396   0.0002382   152.2697335   0.0038051   0.0045566   152.3126423   0.0037959   
01779   152.7049553   0.0037838   0.004537   152.6165633   0.0037744   76.2061901   50.8041268   0.0002389   152.704848   0.0038051   0.0045588   152.7500811   0.0037959   
01780   153.1300325   0.0037839   0.0045392   153.0436208   0.0037745   76.4195132   50.9463421   0.0002395   153.1033202   0.0038053   0.004561   153.1529356   0.0037961   
01781   153.5260362   0.0037842   0.0045414   153.4431063   0.0037747   76.6197584   51.0798389   0.0002402   153.5367888   0.0038053   0.0045632   153.589435   0.0037961   
01782   153.8367623   0.003785   0.0045438   153.7562286   0.0037755   76.7763594   51.1842396   0.0002406   154.0089121   0.0038053   0.0045655   154.0675154   0.0037961   
01783   154.2224314   0.0037853   0.0045461   154.1437127   0.0037758   76.9698356   51.3132238   0.0002412   154.4325047   0.0038054   0.0045678   154.4818218   0.0037962   
01784   154.328736   0.003787   0.0045484   154.2659053   0.0037776   77.0306601   51.3537734   0.0002414   154.726266   0.0038055   0.0045695   154.8211315   0.0037963   
01785   154.7101739   0.0037874   0.0045506   154.6476562   0.0037779   77.2216085   51.4810723   0.000242   154.8305666   0.0038073   0.0045718   154.9299995   0.0037981   
01786   155.1242071   0.0037875   0.0045528   155.0634587   0.003778   77.4291571   51.6194381   0.0002427   155.2664863   0.0038073   0.004574   155.3682266   0.0037981   
01787   155.113624   0.0037903   0.0045555   155.0563748   0.0037808   77.4243964   51.6162643   0.0002427   155.5564091   0.0038085   0.0045767   155.6568339   0.0037994   
01788   155.5075301   0.0037905   0.0045578   155.4525001   0.0037811   77.6223448   51.7482298   0.0002433   156.0062716   0.0038085   0.0045789   156.1072852   0.0037994   
01789   144.9051402   0.0038626   0.0045767   144.8274944   0.003853   72.3158297   48.2105531   0.0002267   145.3569519   0.003881   0.004598   145.4078813   0.0038718   
01790   145.3299635   0.0038626   0.0045789   145.2542502   0.0038531   72.5289303   48.3526202   0.0002273   145.7501216   0.0038813   0.0046002   145.8022264   0.003872   
01791   145.7617628   0.0038627   0.0045811   145.6877471   0.0038532   72.7454234   48.496949   0.000228   146.1865802   0.0038813   0.0046024   146.2414151   0.003872   
01792   146.1878091   0.0038627   0.0045833   146.1155426   0.0038532   72.9590637   48.6393758   0.0002287   146.6260271   0.0038813   0.0046046   146.6751345   0.003872   
01793   146.6236319   0.0038627   0.0045855   146.5529302   0.0038532   73.1774916   48.7849944   0.0002294   147.0613886   0.0038813   0.0046068   147.1129369   0.003872   
01794   147.0604814   0.0038627   0.0045877   146.9913146   0.0038532   73.3964158   48.9309439   0.0002301   147.4965933   0.0038813   0.004609   147.5502412   0.003872   
01795   147.4813415   0.0038628   0.0045899   147.4140893   0.0038533   73.6075237   49.0716825   0.0002307   147.88413   0.0038815   0.0046112   147.9394449   0.0038723   
01796   147.9168665   0.0038629   0.0045921   147.851159   0.0038533   73.82579   49.2171933   0.0002314   148.3200684   0.0038815   0.0046133   148.3766276   0.0038723   
01797   148.3529506   0.0038629   0.0045943   148.2887808   0.0038533   74.0443343   49.3628896   0.0002321   148.755386   0.0038815   0.0046155   148.8143551   0.0038723   
01798   148.7865673   0.0038629   0.0045965   148.723967   0.0038534   74.2616826   49.5077884   0.0002328   149.1386211   0.0038818   0.0046177   149.2048391   0.0038726   
01799   149.2208094   0.0038629   0.0045987   149.159723   0.0038534   74.4793015   49.6528676   0.0002335   149.5751476   0.0038818   0.0046199   149.6421215   0.0038726   
01800   149.6576845   0.0038629   0.0046009   149.5981073   0.0038534   74.6982257   49.7988171   0.0002341   150.0103758   0.0038818   0.0046221   150.0794256   0.0038726   
01801   150.091089   0.0038629   0.0046031   150.0330348   0.0038534   74.9154229   49.9436152   0.0002348   150.4473289   0.0038818   0.0046243   150.5169419   0.0038726   
01802   150.5221446   0.003863   0.0046053   150.4656164   0.0038534   75.131486   50.0876573   0.0002355   150.8840558   0.0038818   0.0046265   150.9563987   0.0038726   
01803   150.9532525   0.003863   0.0046075   150.898527   0.0038535   75.3476744   50.231783   0.0002362   151.3204701   0.0038818   0.0046286   151.3953362   0.0038726   
01804   151.3603371   0.0038632   0.0046097   151.3081565   0.0038537   75.5522008   50.3681339   0.0002368   151.7199909   0.003882   0.0046309   151.7983838   0.0038728   
01805   151.7950729   0.0038632   0.0046119   151.744346   0.0038537   75.7700181   50.5133454   0.0002375   152.155176   0.003882   0.0046331   152.2358125   0.0038728   
01806   152.2074189   0.0038634   0.0046141   152.1587516   0.0038538   75.9768898   50.6512599   0.0002381   152.5977827   0.003882   0.0046353   152.6796548   0.0038728   
01807   152.63652   0.0038634   0.0046163   152.5895869   0.0038539   76.1920652   50.7947101   0.0002388   153.0351218   0.003882   0.0046375   153.1191954   0.0038728   
01808   153.0723595   0.0038634   0.0046185   153.0269152   0.0038539   76.4104631   50.9403087   0.0002395   153.4707104   0.003882   0.0046397   153.5568031   0.0038728   
01809   153.5080216   0.0038634   0.0046207   153.4640591   0.0038539   76.6287684   51.0858456   0.0002402   153.9067029   0.003882   0.0046418   153.9939231   0.0038728   
01810   153.9264649   0.0038635   0.0046229   153.8843299   0.003854   76.8386256   51.2257504   0.0002408   154.3229398   0.0038821   0.004644   154.4106029   0.0038729   
01811   154.3624283   0.0038635   0.0046251   154.3217887   0.003854   77.0570867   51.3713911   0.0002415   154.7585103   0.0038821   0.0046462   154.8481817   0.0038729   
01812   154.7841742   0.0038636   0.0046273   154.7456001   0.0038541   77.2687503   51.5125002   0.0002422   155.1964805   0.0038821   0.0046484   155.2878335   0.0038729   
01813   155.2066172   0.0038637   0.0046295   155.1695412   0.0038542   77.4804383   51.6536255   0.0002428   155.6352818   0.0038821   0.0046506   155.725198   0.0038729   
01814   155.606776   0.0038639   0.0046317   155.5716439   0.0038544   77.681382   51.787588   0.0002435   156.0829143   0.0038821   0.0046529   156.17164   0.0038729   
01815   155.9988131   0.0038641   0.0046339   155.9655958   0.0038546   77.8781307   51.9187538   0.0002441   156.4057978   0.0038826   0.004655   156.5042781   0.0038734   
01816   149.8035511   0.0038804   0.0046191   149.7461213   0.0038709   74.7711518   49.8474345   0.0002344   150.0141079   0.0038917   0.0046317   149.934919   0.0038825   
01817   150.2382487   0.0038804   0.0046213   150.1823719   0.0038709   74.9889273   49.9926182   0.0002351   150.4451186   0.0038917   0.0046339   150.368212   0.0038825   
01818   150.672039   0.0038804   0.0046235   150.617148   0.0038709   75.2059768   50.1373179   0.0002358   150.8786277   0.0038917   0.004636   150.8035683   0.0038825   
01819   151.1069295   0.0038805   0.0046257   151.0537887   0.0038709   75.4240286   50.2826857   0.0002364   151.2643641   0.003892   0.0046382   151.2018965   0.0038827   
01820   151.5427854   0.0038805   0.0046279   151.4911725   0.0038709   75.6424658   50.4283106   0.0002371   151.6995527   0.003892   0.0046404   151.6391941   0.0038827   
01821   151.9791589   0.0038805   0.00463   151.9288713   0.0038709   75.8610476   50.5740317   0.0002378   152.1345801   0.003892   0.0046426   152.0762316   0.0038827   
01822   152.319419   0.0038809   0.0046322   152.270225   0.0038713   76.0310599   50.6873733   0.0002383   152.5277787   0.0038922   0.0046448   152.4731406   0.003883   
01823   152.7510116   0.0038809   0.0046344   152.7034631   0.0038713   76.247409   50.831606   0.000239   152.9567787   0.0038922   0.004647   152.9047327   0.003883   
01824   153.1879292   0.0038809   0.0046366   153.1418474   0.0038713   76.466333   50.9775553   0.0002397   153.3920511   0.0038922   0.0046492   153.3420369   0.003883   
01825   153.6218909   0.0038809   0.0046387   153.5774048   0.0038714   76.6838482   51.1225654   0.0002404   153.8272126   0.0038922   0.0046514   153.779462   0.003883   
01826   154.0581083   0.0038809   0.0046409   154.0151072   0.0038714   76.9024537   51.2683025   0.0002411   154.2612404   0.0038922   0.0046535   154.2156211   0.003883   
01827   154.4916616   0.003881   0.0046431   154.4501941   0.0038714   77.1197293   51.4131529   0.0002418   154.6872348   0.0038923   0.0046557   154.641234   0.003883   
01828   154.9254953   0.003881   0.0046453   154.8853604   0.0038714   77.3369664   51.5579776   0.0002424   155.1201872   0.0038923   0.0046579   155.0763034   0.003883   
01829   155.3607445   0.003881   0.0046475   155.3220592   0.0038714   77.5550306   51.7033538   0.0002431   155.5546169   0.0038923   0.0046601   155.5127094   0.003883   
01830   155.7548158   0.003881   0.0046495   155.7152741   0.0038714   77.7517103   51.8344735   0.0002437   155.9557614   0.0038923   0.0046621   155.911814   0.003883   
01831   156.1865932   0.003881   0.0046517   156.1488206   0.0038714   77.9681563   51.9787709   0.0002444   156.3976441   0.0038923   0.0046643   156.3539463   0.003883   
01832   148.9032756   0.0039316   0.0046657   148.8366872   0.0039219   74.3154294   49.5436196   0.000233   148.988991   0.0039435   0.0046784   148.9693389   0.0039342   
01833   149.340148   0.0039316   0.0046679   149.2750715   0.0039219   74.5343533   49.6895689   0.0002337   149.4242253   0.0039435   0.0046806   149.4066432   0.0039342   
01834   149.7770243   0.0039316   0.00467   149.7134558   0.0039219   74.7532775   49.8355183   0.0002343   149.859463   0.0039435   0.0046828   149.8439472   0.0039342   
01835   150.2139045   0.0039316   0.0046722   150.1518402   0.0039219   74.9722015   49.9814677   0.000235   150.2947045   0.0039435   0.004685   150.2812515   0.0039342   
01836   150.6507885   0.0039316   0.0046744   150.5902245   0.0039219   75.1911255   50.127417   0.0002357   150.7299493   0.0039435   0.0046872   150.7185556   0.0039342   
01837   151.0876764   0.0039316   0.0046766   151.0286088   0.0039219   75.4100494   50.2733663   0.0002364   151.1651972   0.0039435   0.0046893   151.1558595   0.0039342   
01838   151.524568   0.0039316   0.0046788   151.4669931   0.0039219   75.6289735   50.4193157   0.0002371   151.6004485   0.0039435   0.0046915   151.5931635   0.0039342   
01839   151.960821   0.0039316   0.004681   151.9047493   0.0039219   75.8475841   50.565056   0.0002378   152.0358932   0.0039435   0.0046937   152.0306508   0.0039342   
01840   152.3977201   0.0039316   0.0046832   152.3431336   0.0039219   76.0665081   50.7110054   0.0002385   152.4711512   0.0039435   0.0046959   152.4679548   0.0039342   
01841   152.8288592   0.0039316   0.0046854   152.775989   0.003922   76.2826645   50.8551097   0.0002391   152.9081363   0.0039435   0.0046981   152.906923   0.0039342   
01842   153.2657662   0.0039316   0.0046876   153.2143733   0.003922   76.5015886   51.0010591   0.0002398   153.3434012   0.0039435   0.0047003   153.3442273   0.0039342   
01843   153.6944182   0.0039317   0.0046898   153.6450161   0.003922   76.7166456   51.1444304   0.0002405   153.7810965   0.0039435   0.0047025   153.7838596   0.0039342   
01844   154.1313337   0.0039317   0.004692   154.0834004   0.003922   76.9355699   51.2903799   0.0002412   154.2163676   0.0039435   0.0047046   154.2211637   0.0039342   
01845   154.5682527   0.0039317   0.0046941   154.5217847   0.003922   77.1544938   51.4363292   0.0002419   154.6516421   0.0039435   0.0047068   154.6584677   0.0039342   
01846   154.9892637   0.0039318   0.0046964   154.9447292   0.0039221   77.3657166   51.5771444   0.0002425   155.0911621   0.0039435   0.004709   155.0997288   0.0039342   
01847   155.4084705   0.0039319   0.0046985   155.3658773   0.0039222   77.5760628   51.7173752   0.0002432   155.5225282   0.0039435   0.0047112   155.5344902   0.0039342   
01848   155.835994   0.0039319   0.0047007   155.7953568   0.0039223   77.7904381   51.8602921   0.0002438   155.9583661   0.0039435   0.0047134   155.9735102   0.0039342   
01849   156.2559261   0.003932   0.0047029   156.2170885   0.0039224   78.0012128   52.0008086   0.0002445   156.3639883   0.0039437   0.0047156   156.3806733   0.0039344   
01850   156.6675922   0.0039322   0.0047051   156.6308369   0.0039225   78.2076651   52.1384434   0.0002452   156.7985836   0.0039437   0.0047177   156.8130718   0.0039344   
01851   156.9854575   0.0039328   0.0047073   156.9505493   0.0039231   78.3675014   52.245001   0.0002456   157.1886193   0.003944   0.00472   157.1993798   0.0039346   
01852   147.453399   0.0039981   0.0047247   147.3734908   0.0039883   73.584629   49.0564193   0.0002307   147.8530639   0.0040084   0.0047375   147.8360042   0.0039989   
01853   147.8885703   0.0039981   0.0047269   147.8102828   0.0039883   73.8027409   49.2018273   0.0002314   148.2887694   0.0040084   0.0047397   148.2738006   0.0039989   
01854   148.3238178   0.0039981   0.0047291   148.2471378   0.0039883   74.0209147   49.3472765   0.000232   148.7116059   0.0040085   0.0047419   148.6950695   0.003999   
01855   148.7557243   0.0039982   0.0047313   148.680664   0.0039884   74.2374485   49.4916323   0.0002327   149.1481212   0.0040085   0.0047441   149.133927   0.003999   
01856   149.1869034   0.0039982   0.0047335   149.1135167   0.0039884   74.453607   49.635738   0.0002334   149.5866771   0.0040085   0.0047462   149.5703063   0.003999   
01857   149.6237614   0.0039982   0.0047357   149.551901   0.0039884   74.6725311   49.7816874   0.0002341   150.0219154   0.0040085   0.0047484   150.0076104   0.003999   
01858   150.055937   0.0039982   0.0047379   149.9856964   0.0039884   74.889155   49.9261033   0.0002348   150.4581695   0.0040085   0.0047506   150.4468959   0.003999   
01859   150.4396791   0.0039986   0.0047402   150.3717794   0.0039888   75.082065   50.05471   0.0002354   150.551436   0.0040103   0.0047529   150.549112   0.0040008   
01860   150.8644245   0.0039986   0.0047424   150.7982352   0.0039889   75.2950465   50.1966977   0.000236   150.9955852   0.0040103   0.0047551   150.9874146   0.0040008   
01861   151.2869848   0.0039987   0.0047446   151.2226475   0.0039889   75.5069833   50.3379888   0.0002367   151.3363948   0.0040108   0.0047573   151.3321997   0.0040013   
01862   151.7037729   0.0039989   0.0047468   151.6413263   0.0039891   75.7160552   50.4773701   0.0002373   151.7778961   0.0040108   0.0047595   151.7767622   0.0040013   
01863   152.1203891   0.003999   0.004749   152.0601063   0.0039892   75.9252099   50.6168066   0.000238   152.132725   0.0040112   0.0047617   152.1387709   0.0040017   
01864   152.4608151   0.0039996   0.0047514   152.4051638   0.0039898   76.0971831   50.7314554   0.0002385   152.4842245   0.0040118   0.0047641   152.4845577   0.0040023   
01865   152.8942735   0.0039996   0.0047536   152.8401897   0.0039898   76.3144303   50.8762869   0.0002392   152.9223977   0.0040118   0.0047663   152.9211985   0.0040023   
01866   153.2665897   0.004   0.0047558   153.2146375   0.0039903   76.501358   51.0009053   0.0002398   153.1115463   0.0040131   0.0047685   153.1351448   0.0040036   
01867   153.6761256   0.0040002   0.0047581   153.6257174   0.0039904   76.706815   51.1378767   0.0002405   153.4732788   0.0040135   0.0047708   153.4995415   0.004004   
01868   154.0250194   0.0040008   0.0047604   153.977972   0.003991   76.8826451   51.2550967   0.000241   153.9319742   0.0040135   0.0047731   153.9646933   0.004004   
01869   154.4536638   0.0040008   0.0047626   154.4087341   0.003991   77.0976983   51.3984656   0.0002417   154.3680478   0.0040135   0.0047753   154.4034678   0.004004   
01870   154.8870315   0.0040009   0.0047648   154.8435979   0.0039911   77.3148622   51.5432414   0.0002424   154.8042934   0.0040135   0.0047775   154.8420156   0.004004   
01871   155.3156936   0.0040009   0.004767   155.2740233   0.0039911   77.5297543   51.6865029   0.000243   155.2416047   0.0040135   0.0047797   155.2821087   0.004004   
01872   155.7465295   0.0040009   0.0047692   155.7065828   0.0039912   77.7457861   51.830524   0.0002437   155.6781787   0.0040135   0.0047819   155.7208622   0.004004   
01873   156.1679198   0.004001   0.0047714   156.1296627   0.0039913   77.9570857   51.9713905   0.0002444   156.1188222   0.0040135   0.0047841   156.1636369   0.004004   
01874   151.2941322   0.0040359   0.0047817   151.2336122   0.004026   75.512091   50.341394   0.0002367   151.2110152   0.0040487   0.0047946   151.2135373   0.0040391   
01875   151.7310301   0.0040359   0.0047839   151.6719965   0.004026   75.7310148   50.4873432   0.0002374   151.6462693   0.0040487   0.0047967   151.6508413   0.0040391   
01876   152.1613717   0.0040359   0.0047861   152.1040234   0.0040261   75.9467895   50.631193   0.0002381   152.0831885   0.0040487   0.0047989   152.0907798   0.0040391   
01877   152.5924523   0.004036   0.0047883   152.5370237   0.0040261   76.1630216   50.7753477   0.0002387   152.5182339   0.0040487   0.0048011   152.5284143   0.0040391   
01878   153.0275027   0.004036   0.0047905   152.9735742   0.0040261   76.3810017   50.9206678   0.0002394   152.9544938   0.0040487   0.0048033   152.9666521   0.0040391   
01879   153.4138082   0.0040363   0.0047928   153.364105   0.0040264   76.5759836   51.0506557   0.00024   153.3851348   0.0040487   0.0048055   153.4036007   0.0040391   
01880   153.8507332   0.0040363   0.004795   153.8024893   0.0040264   76.7949075   51.196605   0.0002407   153.8204095   0.0040487   0.0048076   153.8409048   0.0040391   
01881   154.2794649   0.0040363   0.0047972   154.2327866   0.0040265   77.0098003   51.3398669   0.0002414   154.2560171   0.0040487   0.0048098   154.2792542   0.0040391   
01882   154.7153197   0.0040363   0.0047993   154.6701861   0.0040265   77.2282363   51.4854909   0.0002421   154.6915043   0.0040487   0.004812   154.7168087   0.0040391   
01883   155.1464573   0.0040364   0.0048015   155.1032698   0.0040265   77.4444549   51.6296366   0.0002428   155.1257307   0.0040487   0.0048142   155.1535282   0.0040391   
01884   155.5816074   0.0040364   0.0048037   155.5399194   0.0040265   77.6625159   51.7750106   0.0002434   155.561852   0.0040487   0.0048164   155.5917541   0.0040391   
01885   156.0080803   0.0040365   0.0048059   155.9680194   0.0040266   77.8763353   51.9175569   0.0002441   156.0004461   0.0040487   0.0048186   156.0327991   0.0040391   
01886   156.4354299   0.0040365   0.0048081   156.3971046   0.0040267   78.0906191   52.0604127   0.0002448   156.4376375   0.0040487   0.0048208   156.4723287   0.0040391   
01887   156.7833253   0.0040371   0.0048104   156.746746   0.0040272   78.2654896   52.1769931   0.0002453   156.8976075   0.0040487   0.0048231   156.9318875   0.0040391   
01888   149.6904742   0.0040865   0.0048242   149.6178006   0.0040765   74.7055477   49.8036985   0.0002342   149.9350558   0.0040977   0.0048369   149.9081223   0.004088   
01889   150.1256051   0.0040865   0.0048264   150.0545403   0.0040765   74.9236545   49.949103   0.0002349   150.3707686   0.0040977   0.0048391   150.3459153   0.004088   
01890   150.5624744   0.0040865   0.0048286   150.4929245   0.0040765   75.1425784   50.0950523   0.0002356   150.8059731   0.0040977   0.0048413   150.7832193   0.004088   
01891   150.9984368   0.0040865   0.0048307   150.9304583   0.0040765   75.3610579   50.2407053   0.0002362   151.2409827   0.0040977   0.0048435   151.2206976   0.004088   
01892   151.435314   0.0040865   0.0048329   151.3688427   0.0040765   75.5799821   50.3866547   0.0002369   151.6761956   0.0040977   0.0048457   151.6580019   0.004088   
01893   151.8653013   0.0040866   0.0048351   151.8006555   0.0040766   75.7956094   50.5304063   0.0002376   152.1130248   0.0040977   0.0048478   152.0974777   0.004088   
01894   152.3021871   0.0040866   0.0048373   152.2390399   0.0040766   76.0145334   50.6763556   0.0002383   152.548246   0.0040977   0.00485   152.5347822   0.004088   
01895   152.7381795   0.0040866   0.0048395   152.6765654   0.0040766   76.2330262   50.8220175   0.000239   152.9837226   0.0040977   0.0048522   152.972358   0.004088   
01896   153.1694609   0.0040866   0.0048417   153.1095001   0.0040766   76.4490781   50.9660521   0.0002396   153.4204635   0.0040977   0.0048544   153.4114121   0.004088   
01897   153.5973302   0.0040867   0.0048439   153.5391528   0.0040767   76.6636415   51.1090943   0.0002403   153.8583692   0.0040977   0.0048566   153.8513048   0.004088   
01898   154.0254173   0.0040867   0.0048461   153.9692216   0.0040767   76.8784736   51.2523157   0.000241   154.1486466   0.0040984   0.0048588   154.1556244   0.0040887   
01899   154.450894   0.0040868   0.0048483   154.3965163   0.0040768   77.0917444   51.3944963   0.0002417   154.5273076   0.0040987   0.004861   154.5292635   0.004089   
01900   154.8776434   0.0040868   0.0048505   154.8250696   0.0040769   77.3058942   51.5372628   0.0002423   154.9654619   0.0040987   0.0048632   154.9702426   0.004089   
01901   155.3036928   0.0040869   0.0048527   155.2528757   0.004077   77.5195099   51.6796733   0.000243   155.2324639   0.0040995   0.0048654   155.2442526   0.0040899   
01902   155.7381533   0.0040869   0.0048549   155.6889457   0.004077   77.7373225   51.8248817   0.0002437   155.6683456   0.0040995   0.0048676   155.682258   0.0040899   
01903   156.1643405   0.004087   0.0048571   156.1168641   0.004077   77.9510192   51.9673461   0.0002443   156.1066385   0.0040995   0.0048698   156.1231403   0.0040899   
01904   156.5919101   0.0040871   0.0048593   156.5463217   0.0040771   78.1656485   52.1104323   0.000245   156.5442975   0.0040995   0.004872   156.5632437   0.0040899   
01905   156.9933963   0.0040873   0.0048616   156.9506017   0.0040773   78.3676072   52.2450714   0.0002456   156.9872796   0.0040996   0.0048742   157.0060052   0.0040899   
01906   157.4246785   0.0040873   0.0048638   157.3834852   0.0040774   78.5837439   52.3891626   0.0002463   157.4239358   0.0040996   0.0048764   157.4452459   0.0040899   
01907   149.8642078   0.0040889   0.0048276   149.8622697   0.0040789   74.8292146   49.8861431   0.0002346   149.5946796   0.0040996   0.0048373   149.6718177   0.0040899   
01908   150.3011305   0.0040889   0.0048298   150.300654   0.0040789   75.0481386   50.0320924   0.0002353   150.0299233   0.0040996   0.0048395   150.1091218   0.0040899   
01909   150.7042691   0.0040889   0.0048318   150.7039548   0.0040789   75.2495452   50.1663634   0.0002359   150.4364823   0.0040996   0.0048415   150.516669   0.0040899   
01910   151.1370053   0.0040889   0.004834   151.1375813   0.0040789   75.4661539   50.3107693   0.0002366   150.8699887   0.0040996   0.0048437   150.9516288   0.0040899   
01911   151.5694602   0.0040889   0.0048362   151.5717649   0.004079   75.68295   50.4553   0.0002372   151.3038091   0.0040996   0.0048459   151.387628   0.0040899   
01912   152.0035884   0.0040889   0.0048383   152.007382   0.004079   75.9005112   50.6003408   0.0002379   151.7337868   0.0040996   0.004848   151.8199569   0.0040899   
01913   152.4257669   0.0040889   0.0048405   152.4291847   0.004079   76.1109919   50.7406613   0.0002386   152.1632059   0.0040996   0.0048502   152.2495816   0.0040899   
01914   152.8580957   0.0040889   0.0048426   152.8629772   0.004079   76.3276843   50.8851229   0.0002393   152.5940797   0.0040996   0.0048523   152.6824319   0.0040899   
01915   153.2932757   0.0040889   0.0048448   153.2996109   0.004079   76.5457008   51.0304672   0.0002399   153.0248294   0.0040996   0.0048545   153.1155915   0.0040899   
01916   153.7272142   0.004089   0.004847   153.7350987   0.004079   76.7631776   51.1754517   0.0002406   153.4593947   0.0040996   0.0048567   153.5523392   0.0040899   
01917   154.0825193   0.004089   0.0048488   154.0832812   0.004079   76.9372247   51.2914831   0.0002412   153.837741   0.0040996   0.0048586   153.9214837   0.0040899   
01918   154.518689   0.004089   0.004851   154.52087   0.004079   77.1557683   51.4371788   0.0002419   154.272542   0.0040996   0.0048607   154.3582358   0.0040899   
01919   154.9464103   0.004089   0.0048531   154.9496514   0.004079   77.3699353   51.5799569   0.0002425   154.7017082   0.0040996   0.0048629   154.7886602   0.0040899   
01920   155.3794179   0.004089   0.0048553   155.3842752   0.004079   77.5870424   51.7246949   0.0002432   155.1331829   0.0040996   0.0048651   155.2224466   0.0040899   
01921   155.8076464   0.004089   0.0048574   155.8145892   0.004079   77.8019423   51.8679615   0.0002439   155.5587537   0.0040996   0.0048672   155.6502268   0.0040899   
01922   156.2349781   0.004089   0.0048596   156.2434678   0.0040791   78.0162278   52.0108185   0.0002445   155.9958735   0.0040996   0.0048694   156.0892209   0.0040899   
01923   156.6698398   0.004089   0.0048618   156.6797757   0.0040791   78.2340835   52.1560557   0.0002452   156.4291636   0.0040996   0.0048716   156.5245712   0.0040899   
01924   157.0772429   0.004089   0.0048639   157.0892856   0.0040791   78.4382697   52.2921798   0.0002459   156.8368211   0.0040996   0.0048736   156.9324545   0.0040899   
01925   157.4756147   0.0040893   0.0048661   157.489742   0.0040793   78.6381257   52.4254171   0.0002465   157.2270952   0.0040998   0.0048758   157.3264101   0.0040901   
01926   157.8191427   0.0040897   0.0048682   157.835339   0.0040797   78.810688   52.5404587   0.000247   157.3415259   0.0041013   0.004878   157.4732392   0.0040916   
01927   149.5728824   0.0041466   0.0048835   149.5238675   0.0041365   74.6595514   49.7730343   0.0002341   148.9402886   0.0041593   0.0048933   148.9401653   0.0041494   
01928   150.0089016   0.0041466   0.0048857   149.9614798   0.0041365   74.8780886   49.9187257   0.0002347   149.3756224   0.0041593   0.0048955   149.3777059   0.0041494   
01929   150.4457133   0.0041466   0.0048878   150.3998641   0.0041365   75.0970126   50.0646751   0.0002354   149.8107196   0.0041593   0.0048977   149.8150099   0.0041494   
01930   150.8738871   0.0041467   0.00489   150.8299384   0.0041365   75.3117699   50.2078466   0.0002361   150.2482464   0.0041593   0.0048999   150.2550023   0.0041494   
01931   151.3089611   0.0041467   0.0048922   151.2666838   0.0041365   75.5298626   50.3532417   0.0002368   150.683874   0.0041593   0.004902   150.692801   0.0041494   
01932   151.7446833   0.0041467   0.0048944   151.7040033   0.0041365   75.7482688   50.4988459   0.0002375   151.119319   0.0041593   0.0049042   151.1304331   0.0041494   
01933   152.177616   0.0041467   0.0048966   152.1386645   0.0041366   75.9652815   50.643521   0.0002381   151.5555912   0.0041593   0.0049064   151.5688711   0.0041494   
01934   152.5466569   0.0041471   0.0048989   152.5112299   0.004137   76.1513778   50.7675852   0.0002387   151.8031046   0.0041603   0.0049087   151.8057255   0.0041504   
01935   152.9819486   0.0041471   0.0049011   152.9481203   0.004137   76.3695355   50.9130237   0.0002394   152.2387647   0.0041603   0.0049109   152.2434806   0.0041504   
01936   153.4001424   0.0041473   0.0049033   153.3684527   0.0041371   76.5794184   51.0529456   0.0002401   152.6793278   0.0041603   0.0049131   152.6863815   0.0041504   
01937   153.8193072   0.0041474   0.0049055   153.7895444   0.0041372   76.7899125   51.193275   0.0002407   153.119219   0.0041603   0.0049153   153.1294321   0.0041504   
01938   154.1582239   0.004148   0.0049079   154.1321809   0.0041379   76.961233   51.3074887   0.0002413   153.4971969   0.0041607   0.0049176   153.5152325   0.0041508   
01939   154.5784581   0.0041481   0.0049101   154.5541436   0.004138   77.1716751   51.4477834   0.0002419   153.9373081   0.0041607   0.0049198   153.9577442   0.0041508   
01940   154.9576927   0.0041485   0.0049124   154.9370565   0.0041383   77.3629473   51.5752982   0.0002425   154.380316   0.0041608   0.0049221   154.4038133   0.0041509   
01941   147.479462   0.0042003   0.0049266   147.4345402   0.0041901   73.6143567   49.0762378   0.0002308   147.0063633   0.0042121   0.0049365   147.0300029   0.0042022   
01942   147.9152167   0.0042003   0.0049288   147.8719017   0.0041901   73.8327575   49.2218384   0.0002315   147.4418149   0.0042121   0.0049387   147.4676542   0.0042022   
01943   148.3520437   0.0042003   0.004931   148.310286   0.0041901   74.0516814   49.3677876   0.0002322   147.8769763   0.0042121   0.0049409   147.9049583   0.0042022   
01944   148.788875   0.0042003   0.0049332   148.7486703   0.0041901   74.2706055   49.513737   0.0002328   148.3121415   0.0042121   0.0049431   148.3422623   0.0042022   
01945   149.2257104   0.0042003   0.0049354   149.1870547   0.0041901   74.4895296   49.6596864   0.0002335   148.7473104   0.0042121   0.0049452   148.7795665   0.0042022   
01946   149.6583052   0.0042003   0.0049376   149.6213747   0.0041901   74.7064915   49.8043276   0.0002342   149.1829195   0.0042121   0.0049474   149.2192851   0.0042022   
01947   150.093876   0.0042003   0.0049398   150.0585265   0.0041901   74.9248216   49.9498811   0.0002349   149.6183467   0.0042121   0.0049496   149.6571669   0.0042022   
01948   150.5307242   0.0042003   0.004942   150.4969108   0.0041901   75.1437459   50.0958306   0.0002356   150.0535274   0.0042121   0.0049518   150.0944713   0.0042022   
01949   150.9639778   0.0042004   0.0049442   150.9318646   0.0041901   75.3609533   50.2406355   0.0002362   150.4897895   0.0042121   0.004954   150.5327702   0.0042022   
01950   151.3996613   0.0042004   0.0049464   151.3691404   0.0041902   75.5793268   50.3862179   0.0002369   150.9253197   0.0042121   0.0049562   150.9702971   0.0042022   
01951   151.8365222   0.0042004   0.0049486   151.8075247   0.0041902   75.7982507   50.5321671   0.0002376   151.3605123   0.0042121   0.0049583   151.4076014   0.0042022   
01952   152.273387   0.0042004   0.0049507   152.245909   0.0041902   76.0171747   50.6781164   0.0002383   151.7957082   0.0042121   0.0049605   151.8449054   0.0042022   
01953   152.7102557   0.0042004   0.0049529   152.6842934   0.0041902   76.2360986   50.8240657   0.000239   152.2309078   0.0042121   0.0049627   152.2822095   0.0042022   
01954   153.1388666   0.0042004   0.0049551   153.1147301   0.0041902   76.4511451   50.9674301   0.0002397   152.6684102   0.0042121   0.0049649   152.7221435   0.0042022   
01955   153.5686826   0.0042005   0.0049573   153.546169   0.0041902   76.6666304   51.1110869   0.0002403   153.1057417   0.0042121   0.0049671   153.1615895   0.0042022   
01956   153.9345341   0.0042009   0.0049596   153.9158106   0.0041907   76.8515679   51.2343786   0.0002409   153.5125495   0.0042124   0.0049694   153.5774907   0.0042024   
01957   154.3701589   0.0042009   0.0049618   154.3529823   0.0041907   77.0698832   51.3799221   0.0002416   153.9449008   0.0042124   0.0049716   154.0079095   0.0042024   
01958   154.8070545   0.0042009   0.004964   154.7913667   0.0041907   77.2888074   51.5258716   0.0002423   154.3801233   0.0042124   0.0049738   154.4452138   0.0042024   
01959   155.2439538   0.0042009   0.0049662   155.229751   0.0041907   77.5077314   51.6718209   0.000243   154.8153491   0.0042124   0.0049759   154.8825177   0.0042024   
01960   155.6786223   0.0042009   0.0049684   155.6659905   0.0041907   77.7255841   51.8170561   0.0002436   155.2439299   0.0042124   0.0049781   155.3126185   0.0042025   
01961   156.0976972   0.0042011   0.0049706   156.0866932   0.0041908   77.9354777   51.9569851   0.0002443   155.6801793   0.0042125   0.0049803   155.7401168   0.0042025   
01962   156.5313812   0.0042011   0.0049728   156.5218417   0.0041908   78.152829   52.101886   0.000245   156.1153652   0.0042125   0.0049825   156.1771844   0.0042025   
01963   156.8062196   0.0042016   0.0049747   156.7908378   0.0041914   78.2875953   52.1917302   0.0002454   156.4812863   0.0042127   0.0049846   156.5448032   0.0042028   
01964   157.2192562   0.0042017   0.0049769   157.2057278   0.0041915   78.4951369   52.3300913   0.0002461   156.7662482   0.0042134   0.0049868   156.8537446   0.0042035   
01965   157.6288282   0.0042018   0.004979   157.6161606   0.0041916   78.7000557   52.4667038   0.0002467   157.2013282   0.0042134   0.004989   157.2907139   0.0042035   
01966   158.0239625   0.0042021   0.0049813   158.0127536   0.0041919   78.8987933   52.5991955   0.0002473   157.6501129   0.0042134   0.0049912   157.7390038   0.0042035   
01967   158.399921   0.0042023   0.0049834   158.3882888   0.0041921   79.0868298   52.7245532   0.0002479   158.0799677   0.0042134   0.0049934   158.1659841   0.0042035   
01968   158.756478   0.0042028   0.0049857   158.7470891   0.0041926   79.2660684   52.8440456   0.0002485   158.4902247   0.0042137   0.0049956   158.5777046   0.0042037   
01969   150.3393493   0.0042399   0.0049805   150.2893594   0.0042296   75.0362986   50.0241991   0.0002358   149.8753015   0.0042517   0.0049905   149.9748284   0.0042417   
01970   150.7761997   0.0042399   0.0049827   150.7277438   0.0042296   75.2552224   50.1701483   0.0002365   150.3104942   0.0042517   0.0049927   150.4121328   0.0042417   
01971   151.2130542   0.0042399   0.0049849   151.1661281   0.0042296   75.4741467   50.3160978   0.0002371   150.7456902   0.0042517   0.0049949   150.8494368   0.0042417   
01972   151.6499126   0.0042399   0.004987   151.6045124   0.0042296   75.6930704   50.462047   0.0002378   151.18089   0.0042517   0.0049971   151.2867409   0.0042417   
01973   152.0838431   0.0042399   0.0049892   152.0400395   0.0042296   75.9106389   50.6070926   0.0002385   151.6169604   0.0042517   0.0049993   151.7249184   0.0042417   
01974   152.5189938   0.0042399   0.0049914   152.4767583   0.0042296   76.1287734   50.7525156   0.0002392   152.0527078   0.0042517   0.0050014   152.1627088   0.0042417   
01975   152.9558642   0.0042399   0.0049936   152.9151427   0.0042296   76.3476973   50.8984649   0.0002399   152.4879185   0.0042517   0.0050036   152.6000131   0.0042417   
01976   153.3927385   0.0042399   0.0049958   153.353527   0.0042296   76.5666212   51.0444141   0.0002406   152.9231326   0.0042517   0.0050058   153.0373171   0.0042417   
01977   153.8154071   0.00424   0.004998   153.7778889   0.0042297   76.778563   51.1857087   0.0002412   153.3641188   0.0042517   0.005008   153.4770473   0.0042417   
01978   154.2522896   0.00424   0.0050002   154.2162732   0.0042297   76.997487   51.331658   0.0002419   153.7993395   0.0042517   0.0050102   153.9143511   0.0042417   
01979   154.6870651   0.00424   0.0050024   154.6526203   0.0042297   77.2153746   51.4769164   0.0002426   154.2352614   0.0042517   0.0050124   154.3521703   0.0042417   
01980   155.1215032   0.00424   0.0050046   155.0886174   0.0042297   77.4331416   51.6220944   0.0002433   154.6713705   0.0042517   0.0050146   154.7900103   0.0042417   
01981   155.5573589   0.00424   0.0050068   155.5260328   0.0042297   77.6515712   51.7677141   0.000244   155.1068934   0.0042517   0.0050167   155.227608   0.0042417   
01982   155.9903565   0.0042401   0.005009   155.9606924   0.0042298   77.8685674   51.9123783   0.0002446   155.543263   0.0042517   0.0050189   155.6659722   0.0042417   
01983   156.409174   0.0042402   0.0050112   156.3816602   0.0042299   78.0788547   52.0525698   0.0002453   155.9837121   0.0042517   0.0050211   156.1085883   0.0042417   
01984   156.8241934   0.0042403   0.0050134   156.7989062   0.00423   78.2870318   52.1913545   0.0002459   156.4237762   0.0042517   0.0050233   156.5527968   0.0042417   
01985   157.2604325   0.0042403   0.0050156   157.2366222   0.00423   78.5056209   52.3370806   0.0002466   156.8590903   0.0042517   0.0050255   156.9904556   0.0042417   
01986   157.6879023   0.0042404   0.0050178   157.6657627   0.0042301   78.7199704   52.4799802   0.0002473   157.2971894   0.0042517   0.0050277   157.4294202   0.0042417   
01987   158.1091545   0.0042405   0.00502   158.0886643   0.0042302   78.9309827   52.6206551   0.000248   157.7342794   0.0042517   0.0050299   157.8694469   0.0042417   
01988   158.5050661   0.0042407   0.0050223   158.4864269   0.0042304   79.1296672   52.7531115   0.0002486   158.1095791   0.004252   0.0050322   158.2523355   0.004242   
01989   158.29315   0.0042411   0.0050215   158.2615202   0.0042308   79.0165342   52.6776895   0.0002482   157.9780298   0.004252   0.0050315   158.0988781   0.004242   
01990   158.7270225   0.0042411   0.0050237   158.6968218   0.0042308   79.2339195   52.822613   0.0002489   158.412034   0.004252   0.0050336   158.5347062   0.004242   
01991   150.0417769   0.0043009   0.0050399   149.9734267   0.0042905   74.8760578   49.9173719   0.0002353   149.3997483   0.0043136   0.0050499   149.5148315   0.0043034   
01992   150.472526   0.004301   0.0050421   150.4061003   0.0042906   75.0921268   50.0614179   0.0002359   149.8357276   0.0043136   0.0050521   149.9483149   0.0043035   
01993   150.9073865   0.004301   0.0050443   150.8425676   0.0042906   75.3100851   50.2067234   0.0002366   150.2236468   0.0043138   0.0050543   150.3444147   0.0043037   
01994   151.2959663   0.0043013   0.0050465   151.2351567   0.0042909   75.5061978   50.3374652   0.0002372   150.5547903   0.0043144   0.0050566   150.6717358   0.0043043   
01995   151.7317975   0.0043013   0.0050487   151.6725816   0.0042909   75.7246476   50.4830984   0.0002379   150.9900998   0.0043144   0.0050587   151.1095408   0.0043043   
01996   152.1686558   0.0043013   0.0050509   152.1109659   0.0042909   75.9435716   50.6290477   0.0002386   151.4252789   0.0043144   0.0050609   151.5468452   0.0043043   
01997   152.6047343   0.0043013   0.0050531   152.5485948   0.0042909   76.1621241   50.7747494   0.0002393   151.8607077   0.0043144   0.0050631   151.9843799   0.0043043   
01998   153.0254478   0.0043014   0.0050553   152.9717005   0.004291   76.3734585   50.915639   0.00024   152.2170919   0.0043148   0.0050653   152.3478287   0.0043047   
01999   153.4587294   0.0043014   0.0050575   153.4066388   0.004291   76.5906624   51.0604416   0.0002406   152.6533143   0.0043148   0.0050675   152.7861782   0.0043047   
02000   153.8918153   0.0043014   0.0050597   153.8413616   0.004291   76.8077596   51.2051731   0.0002413   153.0893185   0.0043148   0.0050697   153.224921   0.0043047   
02001   154.3250087   0.0043014   0.0050619   154.2762321   0.004291   77.0249298   51.3499532   0.000242   153.5255271   0.0043148   0.0050719   153.6632762   0.0043047   
02002   154.7590869   0.0043015   0.0050641   154.7119312   0.0042911   77.2425307   51.4950205   0.0002427   153.9614785   0.0043148   0.0050741   154.1014713   0.0043047   
02003   155.195976   0.0043015   0.0050663   155.1503155   0.0042911   77.4614545   51.6409696   0.0002434   154.3966921   0.0043148   0.0050762   154.5387752   0.0043047   
02004   155.5230592   0.0043022   0.0050686   155.4816564   0.0042918   77.6270329   51.7513553   0.0002439   154.8632424   0.0043148   0.0050786   155.009451   0.0043047   
02005   155.2683257   0.0043066   0.0050718   155.2365895   0.0042962   77.5045437   51.6696958   0.0002435   154.5824683   0.0043195   0.0050818   154.7086062   0.0043093   
02006   155.7038844   0.0043066   0.005074   155.6736626   0.0042962   77.7228223   51.8152149   0.0002442   155.0181295   0.0043195   0.005084   155.1462989   0.0043093   
02007   156.1318659   0.0043067   0.0050762   156.1032411   0.0042963   77.9373205   51.9582137   0.0002448   155.4560099   0.0043195   0.0050862   155.5862855   0.0043093   
02008   156.5635004   0.0043067   0.0050784   156.5364681   0.0042963   78.1536734   52.1024489   0.0002455   155.84793   0.0043197   0.0050884   155.9865115   0.0043095   
02009   156.9974518   0.0043067   0.0050806   156.9720144   0.0042963   78.3711889   52.2474593   0.0002462   156.2840195   0.0043197   0.0050906   156.4246841   0.0043095   
02010   157.4229077   0.0043068   0.0050828   157.3992312   0.0042964   78.5846003   52.3897336   0.0002469   156.7019184   0.0043198   0.0050928   156.8424153   0.0043096   
02011   157.855052   0.0043068   0.005085   157.8329396   0.0042964   78.8011944   52.5341296   0.0002475   157.1377446   0.0043198   0.005095   157.2804988   0.0043096   
02012   158.1521236   0.0043077   0.0050874   158.1334665   0.0042973   78.95139   52.63426   0.000248   157.5652318   0.00432   0.0050973   157.7153712   0.0043098   
02013   158.530183   0.0043081   0.0050897   158.5138348   0.0042977   79.141459   52.7609727   0.0002486   157.9496624   0.0043203   0.0050996   158.1033399   0.0043102   
02014   158.9570583   0.0043082   0.0050919   158.9423935   0.0042978   79.3554357   52.9036238   0.0002493   158.3848972   0.0043203   0.0051018   158.5404204   0.0043102   
02015   159.3742293   0.0043083   0.0050941   159.3617287   0.0042979   79.5648974   53.0432649   0.0002499   158.8248199   0.0043203   0.005104   158.9822393   0.0043102   
02016   159.3129634   0.0043115   0.005097   159.3006484   0.0043011   79.5340616   53.0227077   0.0002498   159.2127945   0.0043214   0.0051069   159.3520595   0.0043112   
02017   159.6399613   0.0043123   0.0050994   159.6286455   0.0043018   79.6974744   53.1316496   0.0002504   159.5984281   0.0043218   0.0051093   159.7140708   0.0043117   
02018   160.0390379   0.0043125   0.0051016   160.0296218   0.004302   79.8981142   53.2654095   0.000251   159.9662881   0.0043222   0.0051115   160.0770986   0.0043121   
02019   160.4009265   0.0043129   0.0051038   160.3933188   0.0043024   80.0795357   53.3863571   0.0002515   160.3631711   0.0043225   0.0051137   160.4626734   0.0043123   
02020   160.4714278   0.0043151   0.0051064   160.4751085   0.0043047   80.1218844   53.4145896   0.0002517   160.8331552   0.0043225   0.0051161   160.9494636   0.0043124   
02021   160.7608694   0.0043161   0.0051088   160.7666821   0.0043056   80.2673681   53.5115788   0.0002521   161.1212412   0.0043234   0.0051185   161.2652189   0.0043133   
02022   149.7508579   0.00439   0.0051274   149.6972324   0.0043794   74.7379049   49.8252699   0.0002348   150.4600515   0.0043974   0.0051388   150.4882726   0.0043871   
02023   150.1249147   0.0043904   0.0051296   150.0754512   0.0043798   74.9270144   49.951343   0.0002354   150.9109952   0.0043974   0.005141   150.9443697   0.0043871   
02024   150.5611274   0.0043904   0.0051318   150.5132202   0.0043798   75.1456143   50.0970762   0.0002361   151.3096901   0.0043976   0.0051432   151.3522764   0.0043873   
02025   150.9969397   0.0043904   0.005134   150.9506249   0.0043798   75.3640281   50.2426854   0.0002368   151.7466616   0.0043976   0.0051454   151.790423   0.0043873   
02026   151.4215939   0.0043905   0.0051362   151.3776515   0.0043799   75.5771762   50.3847842   0.0002375   152.1405736   0.0043978   0.0051476   152.1850267   0.0043876   
02027   151.8266775   0.0043907   0.0051385   151.7847594   0.0043801   75.7803334   50.5202223   0.0002381   152.1425344   0.0044   0.0051499   152.2145022   0.0043897   
02028   152.2611798   0.0043907   0.0051407   152.2207889   0.0043801   75.9981465   50.665431   0.0002388   152.5125447   0.0044003   0.0051521   152.5912042   0.00439   
02029   152.698081   0.0043907   0.0051429   152.6591733   0.0043801   76.2170705   50.8113803   0.0002395   152.9477584   0.0044003   0.0051542   153.0285082   0.00439   
02030   153.1349858   0.0043907   0.005145   153.0975576   0.0043801   76.4359944   50.9573296   0.0002401   153.3829757   0.0044003   0.0051564   153.465812   0.00439   
02031   153.5718942   0.0043907   0.0051472   153.535942   0.0043801   76.6549186   51.1032791   0.0002408   153.8181962   0.0044003   0.0051586   153.9031162   0.00439   
02032   153.9905416   0.0043908   0.0051495   153.9565265   0.0043802   76.8649447   51.2432965   0.0002415   154.2662199   0.0044003   0.0051609   154.3529828   0.00439   
02033   154.3683765   0.0043912   0.0051517   154.3396847   0.0043806   77.0563903   51.3709269   0.0002421   154.7161152   0.0044003   0.0051631   154.8127849   0.00439   
02034   154.8044308   0.0043912   0.0051539   154.7772374   0.0043806   77.274875   51.5165834   0.0002428   155.1526293   0.0044003   0.0051653   155.2503039   0.00439   
02035   155.2407355   0.0043912   0.0051561   155.215202   0.0043806   77.4935644   51.6623763   0.0002435   155.5876933   0.0044003   0.0051675   155.6874558   0.00439   
02036   155.6770468   0.0043912   0.0051583   155.6529765   0.0043806   77.7121659   51.8081106   0.0002441   156.0231235   0.0044003   0.0051697   156.1249698   0.00439   
02037   156.1037558   0.0043912   0.0051605   156.081584   0.0043807   77.926131   51.950754   0.0002448   156.4596065   0.0044003   0.0051719   156.5637656   0.00439   
02038   156.5370515   0.0043913   0.0051627   156.5164855   0.0043807   78.143435   52.0956234   0.0002455   156.8938047   0.0044003   0.005174   157.0001809   0.00439   
02039   156.9562064   0.0043914   0.0051649   156.9390976   0.0043808   78.3545466   52.2363644   0.0002461   157.3295483   0.0044003   0.0051762   157.4387202   0.00439   
02040   157.3922295   0.0043914   0.0051671   157.376712   0.0043808   78.573115   52.3820767   0.0002468   157.7646751   0.0044003   0.0051784   157.8760851   0.00439   
02041   157.8268928   0.0043914   0.0051693   157.8129042   0.0043808   78.7909216   52.5272811   0.0002475   158.2004004   0.0044003   0.0051806   158.3139534   0.00439   
02042   158.2500705   0.0043915   0.0051715   158.2383903   0.0043809   79.0037168   52.6691445   0.0002482   158.519687   0.004401   0.0051829   158.6363157   0.0043907   
02043   158.6821446   0.0043915   0.0051737   158.6719824   0.0043809   79.2202723   52.8135149   0.0002489   158.9587633   0.004401   0.0051851   159.0742904   0.0043907   
02044   159.1139667   0.0043915   0.0051759   159.1053735   0.004381   79.4366792   52.9577861   0.0002495   159.396346   0.004401   0.0051873   159.5130869   0.0043907   
02045   159.4557682   0.0043916   0.0051777   159.4377661   0.0043811   79.6028228   53.0685485   0.0002501   159.7982965   0.004401   0.0051893   159.9101523   0.0043907   
02046   159.7677178   0.0043924   0.00518   159.7532785   0.0043819   79.7615828   53.1743885   0.0002506   160.2501596   0.0044011   0.0051917   160.3677051   0.0043908   
02047   160.1942621   0.0043925   0.0051822   160.181693   0.0043819   79.9755205   53.3170137   0.0002512   160.6869944   0.0044011   0.0051939   160.8088539   0.0043908   
02048   160.6124724   0.0043926   0.0051845   160.6016758   0.004382   80.18548   53.4569867   0.0002519   161.1293087   0.0044011   0.0051961   161.2569505   0.0043908   
02049   160.5735582   0.0043946   0.0051863   160.5543788   0.0043841   80.1627186   53.4418124   0.0002518   160.8536018   0.0044057   0.0051992   160.9187038   0.0043954   
02050   160.8848653   0.0043954   0.0051886   160.8684579   0.0043848   80.3195574   53.5463716   0.0002523   161.2882908   0.0044058   0.0052015   161.3568209   0.0043955   
02051   149.706502   0.0044714   0.0052085   149.6415186   0.0044608   74.7120183   49.8080122   0.0002348   150.1213019   0.0044822   0.0052216   150.0782788   0.0044717   
02052   150.1407562   0.0044715   0.0052107   150.077394   0.0044608   74.9297156   49.9531437   0.0002354   150.557028   0.0044822   0.0052238   150.516639   0.0044717   
02053   150.5523653   0.0044716   0.0052129   150.4918431   0.0044609   75.1363205   50.0908803   0.0002361   150.999003   0.0044822   0.005226   150.9617646   0.0044717   
02054   150.986063   0.0044716   0.0052151   150.9272462   0.004461   75.3537172   50.2358114   0.0002368   151.4350411   0.0044822   0.0052282   151.4000441   0.0044717   
02055   151.3842104   0.0044719   0.0052173   151.3284062   0.0044612   75.5537849   50.36919   0.0002374   151.8418797   0.0044824   0.0052304   151.8148459   0.0044719   
02056   151.8199769   0.0044719   0.0052195   151.7656885   0.0044612   75.7721498   50.5147665   0.0002381   152.2775811   0.0044824   0.0052326   152.2522217   0.0044719   
02057   152.2553773   0.0044719   0.0052217   152.2026513   0.0044612   75.9903605   50.6602404   0.0002388   152.7132269   0.0044824   0.0052348   152.6899591   0.0044719   
02058   152.6648836   0.0044721   0.005224   152.6147312   0.0044614   76.1963285   50.7975524   0.0002394   152.9810976   0.0044832   0.005237   152.9766711   0.0044728   
02059   153.0608885   0.0044723   0.0052262   153.0141067   0.0044616   76.3956633   50.9304422   0.00024   153.320831   0.0044837   0.0052392   153.3149041   0.0044733   
02060   153.497816   0.0044723   0.0052284   153.4524912   0.0044616   76.6145871   51.0763914   0.0002407   153.7560928   0.0044837   0.0052414   153.7522083   0.0044733   
02061   153.9315687   0.0044723   0.0052306   153.8878036   0.0044617   76.8319632   51.2213088   0.0002414   154.1921557   0.0044837   0.0052436   154.1906327   0.0044733   
02062   154.2417556   0.0044731   0.005233   154.2027974   0.0044625   76.9893789   51.3262526   0.0002419   154.6018619   0.004484   0.005246   154.6215557   0.0044735   
02063   154.6643692   0.0044732   0.0052352   154.6273215   0.0044626   77.201367   51.467578   0.0002425   155.0428503   0.004484   0.0052482   155.0608764   0.0044735   
02064   155.025972   0.0044737   0.0052375   154.9923378   0.004463   77.3836225   51.5890817   0.0002431   155.4523346   0.0044842   0.0052505   155.4684905   0.0044738   
02065   155.4573607   0.0044737   0.0052397   155.4253428   0.0044631   77.5998256   51.7332171   0.0002438   155.8868753   0.0044842   0.0052527   155.9033626   0.0044738   
02066   155.8789052   0.0044738   0.0052419   155.848659   0.0044632   77.8112241   51.8741494   0.0002445   156.3269497   0.0044842   0.0052549   156.3449375   0.0044738   
02067   156.3033703   0.0044739   0.0052441   156.2750582   0.0044632   78.0241609   52.0161072   0.0002451   156.7658646   0.0044842   0.0052571   156.7858273   0.0044738   
02068   156.7403446   0.0044739   0.0052463   156.7134426   0.0044632   78.2430848   52.1620565   0.0002458   157.2011714   0.0044842   0.0052592   157.2231314   0.0044738   
02069   157.1624049   0.004474   0.0052485   157.137158   0.0044633   78.4545973   52.3030649   0.0002465   157.6409743   0.0044842   0.0052614   157.6644313   0.0044738   
02070   157.5974306   0.004474   0.0052507   157.5736382   0.0044634   78.6726012   52.4484008   0.0002472   158.0768563   0.0044842   0.0052636   158.1023327   0.0044738   
02071   157.9530637   0.0044745   0.005253   157.9324449   0.0044639   78.851906   52.5679373   0.0002477   158.439112   0.0044848   0.0052659   158.4525853   0.0044743   
02072   158.3828083   0.0044746   0.0052552   158.3637373   0.0044639   79.0672649   52.7115099   0.0002484   158.8765482   0.0044848   0.0052681   158.8920925   0.0044743   
02073   158.7183164   0.0044752   0.0052575   158.7026609   0.0044646   79.2363306   52.8242204   0.0002489   159.3408985   0.0044848   0.0052705   159.3581732   0.0044743   
02074   159.1486224   0.0044753   0.0052597   159.1343958   0.0044646   79.4518594   52.9679062   0.0002496   159.7248133   0.004485   0.0052727   159.7534799   0.0044746   
02075   159.4746673   0.004476   0.0052621   159.463316   0.0044653   79.6162064   53.077471   0.0002501   159.9122148   0.0044864   0.005275   159.9418562   0.004476   
02076   159.908534   0.004476   0.0052643   159.898644   0.0044653   79.8335804   53.2223869   0.0002508   160.348505   0.0044864   0.0052772   160.3800791   0.004476   
02077   159.1438072   0.0044836   0.0052679   159.1394158   0.0044729   79.4555384   52.9703589   0.0002496   159.6066674   0.0044932   0.0052802   159.6964994   0.0044827   
02078   159.5795547   0.0044836   0.0052701   159.5765549   0.0044729   79.6738526   53.1159017   0.0002503   160.0413054   0.0044932   0.0052824   160.1330208   0.0044827   
02079   159.7973836   0.0044848   0.0052725   159.8061169   0.0044741   79.7883046   53.1922031   0.0002506   160.2687731   0.0044942   0.0052847   160.3929375   0.0044837   
02080   160.204947   0.004485   0.0052747   160.2155819   0.0044743   79.993052   53.3287013   0.0002513   160.6860058   0.0044944   0.0052869   160.802557   0.0044839   
02081   160.5731279   0.0044854   0.005277   160.5861671   0.0044747   80.1782663   53.4521775   0.0002519   161.0372692   0.0044949   0.0052892   161.164927   0.0044844   
02082   160.9300814   0.004486   0.0052793   160.9471936   0.0044752   80.3588195   53.5725463   0.0002524   161.4759241   0.004495   0.0052915   161.6005179   0.0044846   
02083   161.0456319   0.0044874   0.0052813   161.0677936   0.0044767   80.4185677   53.6123785   0.0002526   161.5063833   0.0044969   0.0052937   161.6738564   0.0044864   
02084   161.4241596   0.0044878   0.0052836   161.4481044   0.0044771   80.6084426   53.7389617   0.0002532   161.7834966   0.0044978   0.0052959   161.9754971   0.0044873   
02085   161.3831713   0.0044905   0.0052861   161.4115764   0.0044797   80.5900519   53.7267012   0.0002532   162.2084596   0.0044987   0.0052988   162.3268709   0.0044882   
02086   161.7684572   0.0044905   0.0052881   161.7992054   0.0044798   80.7834834   53.8556556   0.0002538   162.595477   0.0044987   0.0053008   162.7183838   0.0044882   
02087   156.5054429   0.0045199   0.0052911   156.564206   0.0045091   78.1707437   52.1138291   0.0002456   156.9126612   0.004538   0.0053119   157.2461998   0.0045274   
02088   156.9309263   0.00452   0.0052933   156.9915509   0.0045091   78.3840646   52.2560431   0.0002462   157.3514496   0.004538   0.0053141   157.6853598   0.0045274   
02089   157.3547389   0.0045201   0.0052955   157.4172934   0.0045092   78.5967453   52.3978302   0.0002469   157.7846739   0.004538   0.0053163   158.1214321   0.0045274   
02090   157.7900474   0.0045201   0.0052977   157.8540983   0.0045092   78.814821   52.543214   0.0002476   158.2201657   0.004538   0.0053185   158.5590255   0.0045274   
02091   158.2270446   0.0045201   0.0052999   158.2924826   0.0045092   79.0337452   52.6891635   0.0002483   158.6554649   0.004538   0.0053206   158.9963296   0.0045274   
02092   158.6546757   0.0045201   0.0053021   158.7224241   0.0045093   79.2485303   52.8323536   0.000249   159.0905067   0.004538   0.0053228   159.4345273   0.0045274   
02093   159.0916801   0.0045201   0.0053043   159.1608084   0.0045093   79.4674545   52.978303   0.0002496   159.5258121   0.004538   0.005325   159.8718312   0.0045274   
02094   159.5286874   0.0045201   0.0053065   159.5991928   0.0045093   79.6863786   53.1242524   0.0002503   159.9611208   0.004538   0.0053272   160.3091355   0.0045274   
02095   159.958852   0.0045202   0.0053086   160.0316116   0.0045093   79.9021628   53.2681085   0.000251   160.3949448   0.004538   0.0053294   160.7457671   0.0045274   
02096   160.3946289   0.0045202   0.0053108   160.4686749   0.0045093   80.1204632   53.4136422   0.0002517   160.8298299   0.004538   0.0053315   161.1822415   0.0045274   
02097   160.8266598   0.0045202   0.005313   160.9018345   0.0045093   80.3366724   53.5577816   0.0002524   161.2603206   0.004538   0.0053337   161.6141194   0.0045274   
02098   161.2620494   0.0045202   0.0053152   161.3384931   0.0045093   80.5547053   53.7031369   0.000253   161.6951338   0.004538   0.0053359   162.051015   0.0045274   
02099   161.6831452   0.0045203   0.0053174   161.7622661   0.0045094   80.7662271   53.8441514   0.0002537   162.13212   0.004538   0.0053381   162.4912795   0.0045274   
02100   162.0713845   0.0045206   0.0053196   162.1512505   0.0045097   80.9606088   53.9737392   0.0002543   162.567613   0.004538   0.0053403   162.9267675   0.0045274   
02101   162.3316251   0.0045214   0.0053218   162.4056312   0.0045106   81.086819   54.0578793   0.0002547   162.9421087   0.0045385   0.0053426   163.2831615   0.0045278   
02102   162.7123836   0.0045217   0.005324   162.7874876   0.0045109   81.2772745   54.1848496   0.0002553   163.3309782   0.0045388   0.0053448   163.6727922   0.0045281   
02103   155.0260872   0.0045492   0.0053129   155.0664521   0.0045383   77.4228383   51.6152255   0.0002432   155.1758232   0.0045685   0.0053335   155.5041096   0.0045577   
02104   155.4595347   0.0045492   0.005315   155.5009587   0.0045383   77.6397878   51.7598586   0.0002439   155.6085971   0.0045685   0.0053357   155.9383415   0.0045577   
02105   155.8885576   0.0045492   0.0053172   155.9312679   0.0045383   77.8546675   51.9031117   0.0002446   156.0370816   0.0045685   0.0053378   156.3682566   0.0045577   
02106   156.3248064   0.0045492   0.0053194   156.3689491   0.0045383   78.0732253   52.0488169   0.0002453   156.4714417   0.0045685   0.00534   156.8046676   0.0045577   
02107   156.7505642   0.0045492   0.0053215   156.7950978   0.0045383   78.2860345   52.1906897   0.0002459   156.9018526   0.0045685   0.0053422   157.2360638   0.0045577   
02108   157.1723903   0.0045493   0.0053237   157.2203167   0.0045383   78.4983726   52.3322484   0.0002466   157.3299095   0.0045685   0.0053443   157.667775   0.0045577   
02109   157.5695893   0.0045495   0.0053259   157.6225881   0.0045386   78.6993421   52.4662281   0.0002472   157.7546264   0.0045685   0.0053465   158.0970961   0.0045577   
02110   157.9975078   0.0045495   0.005328   158.0508301   0.0045386   78.9132931   52.6088621   0.0002479   158.1832846   0.0045685   0.0053486   158.5270506   0.0045577   
02111   158.4278618   0.0045496   0.0053302   158.4827136   0.0045386   79.1289333   52.7526222   0.0002486   158.6171878   0.0045685   0.0053508   158.9629982   0.0045577   
02112   158.8614611   0.0045496   0.0053324   158.9178491   0.0045386   79.3462349   52.89749   0.0002493   158.9172389   0.0045691   0.005353   159.2883481   0.0045583   
02113   159.2739074   0.0045497   0.0053346   159.331665   0.0045388   79.5528201   53.0352134   0.0002499   159.3614935   0.0045691   0.0053552   159.7252618   0.0045583   
02114   159.7082488   0.0045497   0.0053368   159.767441   0.0045388   79.7704532   53.1803021   0.0002506   159.7961625   0.0045691   0.0053574   160.1618514   0.0045583   
02115   160.1347217   0.0045498   0.005339   160.1959648   0.0045388   79.9845229   53.3230153   0.0002512   160.2297491   0.0045691   0.0053595   160.5984051   0.0045583   
02116   160.5717417   0.0045498   0.0053412   160.6343491   0.0045388   80.2034469   53.4689646   0.0002519   160.6650831   0.0045691   0.0053617   161.0357094   0.0045583   
02117   160.9366162   0.0045498   0.0053431   160.9950338   0.0045389   80.3835444   53.5890296   0.0002525   161.0220307   0.0045691   0.0053635   161.3955369   0.0045583   
02118   161.3709995   0.0045499   0.0053453   161.4311279   0.0045389   80.6012853   53.7341902   0.0002532   161.4572897   0.0045691   0.0053657   161.832911   0.0045583   
02119   161.7793281   0.0045499   0.0053474   161.839403   0.0045389   80.805179   53.8701193   0.0002538   161.8768662   0.0045691   0.0053678   162.2515708   0.0045583   
02120   162.1457692   0.0045503   0.0053496   162.2095348   0.0045393   80.9900604   53.9933736   0.0002544   162.3205691   0.0045691   0.00537   162.7006327   0.0045583   
02121   162.5764998   0.0045503   0.0053518   162.6416476   0.0045394   81.2058869   54.137258   0.0002551   162.7605608   0.0045691   0.0053722   163.1405582   0.0045583   
02122   162.9963873   0.0045504   0.005354   163.0633052   0.0045395   81.416573   54.2777154   0.0002557   163.1936878   0.0045691   0.0053744   163.5749668   0.0045583   
02123   163.2933645   0.0045511   0.0053562   163.3648491   0.0045402   81.5672203   54.3781469   0.0002562   163.4072345   0.0045703   0.0053765   163.7718115   0.0045594   
02124   163.3197157   0.0045536   0.0053588   163.3927327   0.0045427   81.5801531   54.3867687   0.0002562   163.3922353   0.0045729   0.0053792   163.7896225   0.0045621   
02125   163.6068784   0.0045546   0.0053612   163.6804322   0.0045436   81.7239964   54.4826642   0.0002567   163.4173684   0.0045751   0.0053816   163.8563925   0.0045642   
02126   163.831701   0.0045556   0.0053633   163.8995969   0.0045446   81.8341087   54.5560725   0.000257   163.8648545   0.0045751   0.0053838   164.2881505   0.0045643   
02127   163.9193765   0.0045577   0.0053659   163.985399   0.0045468   81.8767494   54.5844996   0.0002572   163.9973146   0.0045771   0.0053865   164.4101385   0.0045663   
02128   164.3122664   0.004558   0.0053682   164.3800895   0.0045471   82.0738178   54.7158785   0.0002578   164.4458215   0.0045771   0.0053887   164.8589107   0.0045663   
02129   164.6135429   0.0045586   0.0053702   164.6796734   0.0045476   82.2236528   54.8157685   0.0002583   164.6289621   0.0045783   0.0053907   165.0091891   0.0045674   
02130   159.0524404   0.0045976   0.0053811   159.074693   0.0045865   79.424704   52.9498027   0.0002495   158.8768416   0.0046184   0.0054018   159.2148165   0.0046074   
02131   159.4882384   0.0045976   0.0053833   159.5119641   0.0045865   79.6430905   53.0953937   0.0002502   159.3123455   0.0046184   0.005404   159.6525936   0.0046074   
02132   159.9188997   0.0045976   0.0053855   159.9443161   0.0045865   79.8589427   53.2392951   0.0002509   159.7505603   0.0046184   0.0054062   160.0901688   0.0046074   
02133   160.3528615   0.0045976   0.0053877   160.3798392   0.0045865   80.0764582   53.3843054   0.0002515   160.1873399   0.0046184   0.0054084   160.527345   0.0046074   
02134   160.7898349   0.0045976   0.0053899   160.8182236   0.0045865   80.2953821   53.5302547   0.0002522   160.6226525   0.0046184   0.0054105   160.964649   0.0046074   
02135   161.2248179   0.0045976   0.0053921   161.2546993   0.0045866   80.5133416   53.6755611   0.0002529   161.0585673   0.0046184   0.0054127   161.4025316   0.0046074   
02136   161.6420605   0.0045978   0.0053943   161.6742989   0.0045867   80.7230127   53.8153418   0.0002536   161.4990722   0.0046184   0.0054149   161.8461873   0.0046074   
02137   162.0735594   0.0045978   0.0053965   162.1073675   0.0045867   80.9392975   53.9595316   0.0002542   161.9364095   0.0046184   0.0054171   162.2846414   0.0046074   
02138   162.4799581   0.004598   0.0053987   162.5161054   0.0045869   81.143256   54.095504   0.0002549   162.2871537   0.0046189   0.0054194   162.6399711   0.0046079   
02139   162.9169525   0.004598   0.0054009   162.9544898   0.0045869   81.3621796   54.2414531   0.0002556   162.7224851   0.0046189   0.0054215   163.0772749   0.0046079   
02140   163.3518599   0.004598   0.0054031   163.3908766   0.0045869   81.5801218   54.3867479   0.0002562   163.1588499   0.0046189   0.0054237   163.5145767   0.0046079   
02141   163.781371   0.0045981   0.0054053   163.8219642   0.004587   81.7954127   54.5302751   0.0002569   163.5973794   0.0046189   0.0054259   163.9518371   0.0046079   
02142   164.1930307   0.0045982   0.0054076   164.2357229   0.0045871   82.0018672   54.6679115   0.0002576   163.9764406   0.0046192   0.0054281   164.3310736   0.0046082   
02143   164.5889716   0.0045985   0.0054098   164.6341521   0.0045874   82.2007177   54.8004785   0.0002582   164.4195722   0.0046193   0.0054304   164.7621691   0.0046082   
02144   155.6356718   0.0046602   0.0054264   155.6234667   0.004649   77.7005556   51.8003704   0.0002441   155.8182159   0.0046805   0.0054481   156.0402033   0.0046693   
02145   156.0725668   0.0046602   0.0054286   156.0618511   0.004649   77.9194796   51.9463197   0.0002448   156.2534008   0.0046805   0.0054503   156.4775074   0.0046693   
02146   156.4966395   0.0046603   0.0054308   156.4881233   0.004649   78.1323771   52.0882514   0.0002455   156.6895707   0.0046805   0.0054525   156.9146193   0.0046694   
02147   156.9335437   0.0046603   0.005433   156.9265077   0.004649   78.3513011   52.2342007   0.0002461   157.1247651   0.0046805   0.0054547   157.3519233   0.0046694   
02148   157.3590505   0.0046603   0.0054352   157.3539687   0.0046491   78.5647903   52.3765269   0.0002468   157.5076426   0.0046807   0.0054569   157.7445553   0.0046696   
02149   157.7929041   0.0046604   0.0054374   157.7893737   0.0046491   78.7822098   52.5214732   0.0002475   157.9012875   0.0046809   0.0054591   158.1450001   0.0046698   
02150   158.2272705   0.0046604   0.0054396   158.2253366   0.0046491   78.9999357   52.6666238   0.0002482   158.3372171   0.0046809   0.0054613   158.5830353   0.0046698   
02151   158.6641906   0.0046604   0.0054418   158.6637209   0.0046491   79.2188598   52.8125732   0.0002489   158.772427   0.0046809   0.0054634   159.0203396   0.0046698   
02152   159.0903053   0.0046604   0.005444   159.09146   0.0046492   79.4324629   52.9549753   0.0002495   159.16856   0.0046812   0.0054656   159.4223128   0.00467   
02153   159.5059748   0.0046606   0.0054462   159.5095972   0.0046493   79.6412951   53.0941967   0.0002502   159.6098154   0.0046812   0.0054678   159.8642443   0.00467   
02154   159.9262547   0.0046607   0.0054484   159.9318548   0.0046495   79.8521424   53.2347616   0.0002508   160.0503718   0.0046812   0.0054701   160.3061211   0.00467   
02155   160.3541926   0.0046607   0.0054506   160.3616432   0.0046495   80.0667793   53.3778529   0.0002515   160.4856659   0.0046812   0.0054722   160.7416851   0.00467   
02156   160.7898813   0.0046608   0.0054528   160.7988229   0.0046495   80.2851097   53.5234064   0.0002522   160.9212849   0.0046812   0.0054744   161.179373   0.00467   
02157   161.2111523   0.0046608   0.005455   161.2219648   0.0046496   80.4964028   53.6642685   0.0002529   161.3216528   0.0046814   0.0054766   161.5851694   0.0046702   
02158   161.6178219   0.004661   0.0054572   161.6305813   0.0046498   80.7004839   53.8003226   0.0002535   161.7144846   0.0046816   0.0054789   161.9700226   0.0046705   
02159   162.0198995   0.0046613   0.0054595   162.0351883   0.00465   80.9025613   53.9350409   0.0002541   162.1572572   0.0046816   0.0054811   162.4183812   0.0046705   
02160   162.4108076   0.0046616   0.0054617   162.4288893   0.0046503   81.0992284   54.0661523   0.0002547   162.6063081   0.0046816   0.0054834   162.8701414   0.0046705   
02161   162.7840643   0.004662   0.005464   162.8043426   0.0046507   81.2867016   54.1911344   0.0002553   163.0533136   0.0046817   0.0054856   163.3145535   0.0046705   
02162   163.2210385   0.004662   0.0054662   163.242727   0.0046507   81.5056258   54.3370839   0.000256   163.4885882   0.0046817   0.0054878   163.7518576   0.0046705   
02163   163.6468115   0.004662   0.0054684   163.669945   0.0046508   81.7190048   54.4793366   0.0002567   163.9265875   0.0046817   0.00549   164.1929456   0.0046705   
02164   164.0253838   0.0046624   0.0054707   164.0510693   0.0046512   81.9093375   54.606225   0.0002573   164.3765409   0.0046817   0.0054923   164.6502537   0.0046705   
02165   164.4529934   0.0046625   0.0054729   164.4802015   0.0046512   82.1236447   54.7490965   0.0002579   164.8157468   0.0046817   0.0054945   165.0885106   0.0046705   
02166   164.8537605   0.0046627   0.0054751   164.8826997   0.0046514   82.3244065   54.8829376   0.0002586   165.2613796   0.0046817   0.0054967   165.5337537   0.0046705   
02167   165.2443949   0.004663   0.0054774   165.2754676   0.0046517   82.520379   55.013586   0.0002592   165.6419356   0.004682   0.0054989   165.911618   0.0046708   
02168   165.5008061   0.0046641   0.0054798   165.5333848   0.0046528   82.6493238   55.0995492   0.0002596   165.8852316   0.0046833   0.0055014   166.1383008   0.0046721   
02169   165.6972945   0.0046656   0.0054823   165.733242   0.0046544   82.7490887   55.1660591   0.0002599   165.8057791   0.0046861   0.0055039   166.0667894   0.004675   
02170   166.0656263   0.0046659   0.0054845   166.1043057   0.0046547   82.9344238   55.2896158   0.0002605   166.2300076   0.0046862   0.0055061   166.4864543   0.0046751   
02171   156.2544928   0.0047324   0.0055017   156.2319658   0.0047211   78.0017677   52.0011785   0.0002451   156.22943   0.0047542   0.0055238   156.4496738   0.004743   
02172   156.6914051   0.0047324   0.0055038   156.6703502   0.0047211   78.2206918   52.1471278   0.0002457   156.6646429   0.0047542   0.005526   156.8869778   0.004743   
02173   157.1274353   0.0047324   0.005506   157.1078511   0.0047211   78.4392067   52.2928045   0.0002464   157.1001322   0.0047542   0.0055282   157.3246161   0.004743   
02174   157.5625931   0.0047324   0.0055082   157.544534   0.0047211   78.6572231   52.4381487   0.0002471   157.53606   0.0047542   0.0055304   157.7624097   0.004743   
02175   157.999516   0.0047324   0.0055104   157.9829184   0.0047211   78.8761473   52.5840982   0.0002478   157.9712835   0.0047542   0.0055326   158.1997136   0.004743   
02176   158.4364423   0.0047324   0.0055126   158.4213027   0.0047211   79.0950714   52.7300476   0.0002485   158.4065103   0.0047542   0.0055348   158.6370179   0.004743   
02177   158.8707501   0.0047325   0.0055148   158.8571351   0.0047212   79.3127026   52.875135   0.0002492   158.8425514   0.0047542   0.0055369   159.0752405   0.004743   
02178   159.2438745   0.0047329   0.0055171   159.2331319   0.0047216   79.500435   53.00029   0.0002497   159.297222   0.0047542   0.0055392   159.5311329   0.004743   
02179   159.6727411   0.0047329   0.0055193   159.6634264   0.0047216   79.7155979   53.1437319   0.0002504   159.69076   0.0047544   0.0055414   159.92615   0.0047432   
02180   160.0849682   0.0047331   0.0055215   160.0779144   0.0047218   79.9224588   53.2816392   0.0002511   160.1332642   0.0047544   0.0055436   160.370853   0.0047432   
02181   160.4420522   0.0047336   0.0055238   160.4375665   0.0047223   80.1020054   53.4013369   0.0002516   160.5380472   0.0047547   0.005546   160.7757572   0.0047435   
02182   160.879009   0.0047336   0.005526   160.8759508   0.0047223   80.3209294   53.5472862   0.0002523   160.9733016   0.0047547   0.0055481   161.2130611   0.0047435   
02183   161.3141435   0.0047336   0.0055282   161.3126503   0.0047223   80.5390255   53.6926837   0.000253   161.4086638   0.0047547   0.0055503   161.6506653   0.0047435   
02184   161.7499461   0.0047336   0.0055304   161.7498833   0.0047223   80.7573604   53.8382403   0.0002537   161.8442498   0.0047547   0.0055525   162.088315   0.0047435   
02185   162.1851921   0.0047336   0.0055326   162.1865773   0.0047223   80.9754529   53.9836353   0.0002544   162.2423602   0.0047549   0.0055547   162.4930507   0.0047437   
02186   162.5882175   0.0047338   0.0055348   162.5918052   0.0047225   81.1780058   54.1186705   0.000255   162.6736876   0.0047549   0.0055569   162.9262134   0.0047437   
02187   163.0234774   0.0047338   0.005537   163.0283234   0.0047225   81.3959868   54.2639912   0.0002557   163.0708802   0.0047551   0.0055591   163.3307191   0.0047439   
02188   163.4597783   0.0047338   0.0055392   163.4660649   0.0047225   81.6146097   54.4097398   0.0002564   163.5063564   0.0047551   0.0055613   163.7682172   0.0047439   
02189   163.8959478   0.0047338   0.0055414   163.9036452   0.0047225   81.8331355   54.5554237   0.000257   163.940914   0.0047551   0.0055635   164.204726   0.0047439   
02190   164.0477595   0.0047357   0.005544   164.0645904   0.0047243   81.9126579   54.6084386   0.0002573   164.4202833   0.0047551   0.0055659   164.6977649   0.0047439   
02191   164.4836595   0.0047357   0.0055462   164.5020485   0.0047243   82.1311181   54.7540787   0.000258   164.8552321   0.0047551   0.0055681   165.1349287   0.0047439   
02192   164.9180999   0.0047357   0.0055483   164.9379001   0.0047244   82.3487654   54.8991769   0.0002587   165.2908121   0.0047551   0.0055703   165.5721394   0.0047439   
02193   165.2910194   0.004736   0.0055506   165.3184789   0.0047247   82.5390143   55.0260095   0.0002593   165.7088661   0.0047551   0.0055724   165.9998171   0.0047439   
02194   165.722379   0.0047361   0.0055528   165.751383   0.0047247   82.755143   55.1700953   0.0002599   166.1447879   0.0047551   0.0055746   166.4373032   0.0047439   
02195   165.7748814   0.0047384   0.0055554   165.807256   0.004727   82.7828063   55.1885375   0.00026   166.0466215   0.0047581   0.0055771   166.3666419   0.0047469   
02196   166.2023975   0.0047384   0.0055575   166.2348222   0.0047271   82.9964614   55.3309743   0.0002607   166.4504023   0.0047581   0.0055791   166.7607031   0.0047469   
02197   166.4287683   0.0047395   0.0055598   166.463896   0.0047282   83.112089   55.4080593   0.0002611   166.5371135   0.0047599   0.0055814   166.8629618   0.0047486   
02198   166.7743579   0.0047401   0.0055621   166.8114024   0.0047288   83.2851657   55.5234438   0.0002616   166.7681372   0.004761   0.0055837   167.1014382   0.0047498   
02199   155.6996498   0.0048155   0.0055819   155.6881107   0.0048041   77.7291612   51.8194408   0.0002442   155.8631542   0.0048357   0.0056036   156.1770685   0.0048244   
02200   156.1345704   0.0048155   0.0055841   156.1245397   0.0048041   77.9470931   51.9647287   0.0002449   156.2990022   0.0048357   0.0056058   156.6149775   0.0048244   
02201   156.5699424   0.0048156   0.0055863   156.5614439   0.0048042   78.1652854   52.1101903   0.0002456   156.7346846   0.0048357   0.005608   157.0527733   0.0048244   
02202   157.0068612   0.0048156   0.0055885   156.9998282   0.0048042   78.3842094   52.2561396   0.0002463   157.1699484   0.0048357   0.0056102   157.4900773   0.0048244   
02203   157.4289764   0.0048157   0.0055907   157.4240522   0.0048042   78.5961974   52.3974649   0.0002469   157.60949   0.0048357   0.0056124   157.9318703   0.0048244   
02204   157.8491673   0.0048158   0.0055929   157.8462617   0.0048043   78.8072107   52.5381404   0.0002476   158.0495873   0.0048357   0.0056146   158.374364   0.0048244   
02205   158.2823301   0.0048158   0.0055951   158.280996   0.0048044   79.0242945   52.682863   0.0002483   158.4521586   0.0048358   0.0056168   158.7840213   0.0048245   
02206   158.7009238   0.0048159   0.0055973   158.7018252   0.0048045   79.2344957   52.8229971   0.0002489   158.8926516   0.0048358   0.005619   159.2258803   0.0048245   
02207   159.1356393   0.0048159   0.0055995   159.1380727   0.0048045   79.4523377   52.9682251   0.0002496   159.3285491   0.0048358   0.0056212   159.66394   0.0048245   
02208   159.5166041   0.0048163   0.0056018   159.521681   0.0048049   79.6439116   53.0959411   0.0002502   159.7800229   0.0048358   0.0056234   160.1180763   0.0048245   
02209   159.8798946   0.0048167   0.0056041   159.8880674   0.0048053   79.8267434   53.217829   0.0002508   159.6702956   0.0048385   0.0056257   160.0654397   0.0048272   
02210   160.3102847   0.0048168   0.0056063   160.3200498   0.0048054   80.042468   53.3616453   0.0002515   160.1077145   0.0048385   0.0056279   160.5045071   0.0048272   
02211   160.7455395   0.0048168   0.0056085   160.7567409   0.0048054   80.260549   53.5070327   0.0002521   160.5410396   0.0048386   0.0056301   160.9349137   0.0048273   
02212   161.1793499   0.0048168   0.0056107   161.1921568   0.0048054   80.478003   53.652002   0.0002528   160.9772564   0.0048386   0.0056323   161.3731218   0.0048273   
02213   161.6104949   0.0048168   0.0056129   161.624806   0.0048054   80.6940225   53.796015   0.0002535   161.4144813   0.0048386   0.0056345   161.8120311   0.0048273   
02214   162.0431428   0.0048169   0.0056151   162.0589354   0.0048055   80.9107902   53.9405268   0.0002542   161.850987   0.0048386   0.0056367   162.2509571   0.0048273   
02215   162.4796348   0.0048169   0.0056173   162.4968601   0.0048055   81.1294856   54.0863238   0.0002549   162.2864481   0.0048386   0.0056389   162.6884015   0.0048273   
02216   162.7648808   0.0048179   0.0056197   162.7853093   0.0048064   81.2735196   54.1823464   0.0002553   162.7573093   0.0048386   0.0056413   163.153815   0.0048273   
02217   163.1439417   0.0048182   0.0056219   163.1669768   0.0048068   81.464149   54.3094327   0.0002559   163.2019127   0.0048387   0.0056435   163.5998341   0.0048274   
02218   163.565166   0.0048183   0.0056241   163.589962   0.0048069   81.6753264   54.4502176   0.0002566   163.6106869   0.0048388   0.0056457   164.0111808   0.0048275   
02219   163.9486032   0.0048187   0.0056264   163.9754091   0.0048073   81.8675053   54.5783368   0.0002572   163.9463538   0.0048394   0.005648   164.3515186   0.0048281   
02220   164.3856057   0.0048187   0.0056286   164.4137935   0.0048073   82.0864293   54.7242862   0.0002578   164.3816879   0.0048394   0.0056502   164.7888225   0.0048281   
02221   164.6786222   0.0048196   0.005631   164.7094978   0.0048082   82.2346602   54.8231068   0.0002583   164.7319149   0.0048401   0.0056526   165.1288167   0.0048287   
02222   165.0943792   0.0048197   0.0056332   165.1277793   0.0048083   82.4433271   54.9622181   0.000259   165.1618634   0.0048401   0.0056547   165.5620556   0.0048287   
02223   165.5235213   0.0048198   0.0056354   165.5582488   0.0048084   82.6582654   55.1055103   0.0002596   165.6000557   0.0048401   0.0056569   166.0016754   0.0048287   
02224   165.9503931   0.0048198   0.0056376   165.9864443   0.0048084   82.8720705   55.248047   0.0002603   166.0377543   0.0048401   0.0056591   166.4402945   0.0048287   
02225   155.9809905   0.0048881   0.0056557   155.9666738   0.0048766   77.8674093   51.9116062   0.0002446   155.8270407   0.0049097   0.0056774   156.1836175   0.0048983   
02226   156.4170766   0.0048881   0.0056579   156.4042887   0.0048766   78.0859493   52.0572995   0.0002453   156.2624972   0.0049097   0.0056796   156.6211543   0.0048983   
02227   156.8290032   0.0048882   0.0056602   156.8186031   0.0048767   78.2928614   52.1952409   0.000246   156.7045433   0.0049097   0.0056818   157.0653531   0.0048983   
02228   157.2659135   0.0048882   0.0056624   157.2569875   0.0048767   78.5117854   52.3411903   0.0002467   157.1397771   0.0049097   0.005684   157.5026574   0.0048983   
02229   157.6950614   0.0048883   0.0056646   157.687843   0.0048768   78.726954   52.484636   0.0002473   157.5771315   0.0049097   0.0056862   157.9422969   0.0048983   
02230   158.119583   0.0048884   0.0056668   158.1144271   0.0048769   78.9399771   52.6266514   0.000248   157.8871287   0.0049103   0.0056884   158.2724729   0.0048989   
02231   158.5534676   0.0048884   0.005669   158.5499755   0.0048769   79.1574933   52.7716622   0.0002487   158.3232374   0.0049103   0.0056906   158.7106302   0.0048989   
02232   158.9588793   0.0048886   0.0056712   158.9575017   0.0048771   79.3609946   52.9073297   0.0002493   158.6400777   0.0049109   0.0056928   159.0405065   0.0048995   
02233   159.3864364   0.0048886   0.0056734   159.386879   0.0048771   79.575403   53.0502687   0.00025   159.0781038   0.0049109   0.005695   159.4806211   0.0048995   
02234   159.8233729   0.0048886   0.0056756   159.8252634   0.0048771   79.7943268   53.1962179   0.0002507   159.5133771   0.0049109   0.0056972   159.9179252   0.0048995   
02235   160.1744614   0.0048892   0.0056779   160.1801061   0.0048777   79.9715221   53.3143481   0.0002512   159.9745168   0.0049109   0.0056995   160.3805261   0.0048995   
02236   160.6087537   0.0048892   0.0056801   160.6159336   0.0048777   80.1891675   53.459445   0.0002519   160.3704675   0.0049111   0.0057017   160.7782709   0.0048997   
02237   161.005257   0.0048895   0.0056823   161.0146991   0.004878   80.3883224   53.5922149   0.0002525   160.8209162   0.0049111   0.0057039   161.2154536   0.0048997   
02238   161.4413722   0.0048895   0.0056845   161.4522889   0.004878   80.6068499   53.7378999   0.0002532   161.2564448   0.0049111   0.0057061   161.6529985   0.0048997   
02239   161.8699666   0.0048895   0.0056867   161.8823993   0.004878   80.8216491   53.8810994   0.0002539   161.6940345   0.0049111   0.0057083   162.0927791   0.0048997   
02240   162.1918689   0.0048903   0.0056891   162.2070907   0.0048788   80.9837716   53.9891811   0.0002544   162.1635346   0.0049111   0.0057107   162.5657604   0.0048997   
02241   162.6195304   0.0048903   0.0056913   162.6363793   0.0048788   81.1981704   54.1321136   0.0002551   162.5993513   0.0049111   0.0057129   163.0017341   0.0048997   
02242   163.0543514   0.0048903   0.0056935   163.0726539   0.0048788   81.4160505   54.277367   0.0002558   162.9771817   0.0049114   0.005715   163.3908506   0.0049   
02243   163.46436   0.0048905   0.0056957   163.4849489   0.004879   81.621873   54.414582   0.0002564   163.4205235   0.0049114   0.0057173   163.8361772   0.0049   
02244   163.8970303   0.0048905   0.0056979   163.9191578   0.004879   81.838741   54.5591607   0.0002571   163.8571449   0.0049114   0.0057194   164.2747564   0.0049   
02245   164.3276102   0.0048906   0.0057001   164.3513597   0.0048791   82.0545731   54.7030487   0.0002577   164.2941954   0.0049114   0.0057216   164.7139489   0.0049   
02246   157.0891688   0.004941   0.0057141   157.0737599   0.0049294   78.4193572   52.2795715   0.0002464   157.28038   0.0049606   0.0057357   157.7524756   0.0049491   
02247   157.518233   0.004941   0.0057163   157.5045971   0.0049294   78.6345055   52.4230037   0.000247   157.6396733   0.004961   0.0057379   158.1108761   0.0049495   
02248   157.872341   0.0049415   0.0057186   157.8631647   0.0049299   78.8135698   52.5423799   0.0002476   157.8661353   0.0049621   0.0057402   158.3567824   0.0049506   
02249   158.1954463   0.0049422   0.0057209   158.1908464   0.0049307   78.9772039   52.6514693   0.0002481   158.3452197   0.0049621   0.0057426   158.8001349   0.0049506   
02250   158.6323705   0.0049422   0.0057231   158.6292307   0.0049307   79.1961281   52.7974188   0.0002488   158.780478   0.0049621   0.0057447   159.237439   0.0049506   
02251   159.0692982   0.0049422   0.0057253   159.0676151   0.0049307   79.415052   52.943368   0.0002495   159.2157399   0.0049621   0.0057469   159.674743   0.0049506   
02252   159.5062293   0.0049422   0.0057275   159.5059994   0.0049307   79.6339762   53.0893174   0.0002502   159.6510046   0.0049621   0.0057491   160.112047   0.0049506   
02253   159.9431636   0.0049422   0.0057297   159.9443837   0.0049307   79.8529001   53.2352668   0.0002509   160.0862723   0.0049621   0.0057513   160.5493512   0.0049506   
02254   160.378257   0.0049423   0.0057319   160.3810261   0.0049307   80.0709524   53.3806349   0.0002515   160.5218289   0.0049621   0.0057535   160.9870312   0.0049506   
02255   160.8151982   0.0049423   0.0057341   160.8194104   0.0049307   80.2898763   53.5265842   0.0002522   160.9571042   0.0049621   0.0057556   161.4243359   0.0049506   
02256   161.091127   0.0049433   0.0057365   161.0998709   0.0049317   80.4298357   53.6198905   0.0002527   161.2966378   0.0049628   0.0057581   161.7652186   0.0049513   
02257   161.3816732   0.0049442   0.0057389   161.3943777   0.0049326   80.576912   53.7179413   0.0002531   161.2987455   0.0049653   0.0057605   161.7275692   0.0049538   
02258   161.8145219   0.0049443   0.0057411   161.8288004   0.0049327   80.7938557   53.8625704   0.0002538   161.7352548   0.0049653   0.0057627   162.166088   0.0049538   
02259   162.2425538   0.0049443   0.0057433   162.2586073   0.0049327   81.0084933   54.0056622   0.0002545   162.1731587   0.0049653   0.0057649   162.6060429   0.0049538   
02260   162.4734795   0.0049456   0.0057458   162.4932787   0.004934   81.1256953   54.0837969   0.0002548   162.6696719   0.0049653   0.0057674   163.1047752   0.0049538   
02261   162.882823   0.0049458   0.005748   162.9048531   0.0049342   81.3312143   54.2208095   0.0002555   163.1132354   0.0049653   0.0057696   163.5503013   0.0049538   
02262   163.3157798   0.0049458   0.0057502   163.3384143   0.0049342   81.5477125   54.3651417   0.0002562   163.5486113   0.0049653   0.0057718   163.9877137   0.0049538   
02263   163.6632569   0.0049464   0.0057525   163.6873507   0.0049348   81.7219021   54.4812681   0.0002567   163.6998995   0.0049668   0.0057741   164.1498449   0.0049553   
02264   164.0976611   0.0049464   0.0057547   164.1232944   0.0049348   81.9396039   54.6264026   0.0002574   164.1354179   0.0049668   0.0057763   164.5875948   0.0049553   
02265   164.5271851   0.0049465   0.0057569   164.5542621   0.0049349   82.1547262   54.7698175   0.0002581   164.5737408   0.0049668   0.0057785   165.0234412   0.0049553   
02266   164.9205619   0.0049467   0.0057592   164.949579   0.0049351   82.352132   54.9014214   0.0002587   164.867402   0.0049676   0.0057807   165.3170437   0.0049561   
02267   164.7890218   0.0049475   0.0057592   164.7955673   0.0049359   82.2753135   54.850209   0.0002585   165.0044819   0.0049677   0.0057814   165.4059389   0.0049562   
02268   165.2047988   0.0049475   0.0057614   165.2133861   0.0049359   82.4835724   54.9890483   0.0002591   165.423674   0.0049677   0.0057835   165.8269236   0.0049562   
02269   159.8155343   0.0049507   0.0057376   159.8292887   0.0049391   79.7924142   53.1949428   0.0002508   159.7281429   0.0049684   0.0057558   160.1753664   0.0049569   
02270   160.2461677   0.0049507   0.0057397   160.2606761   0.0049391   80.0080774   53.3387183   0.0002515   160.1451339   0.0049684   0.0057578   160.5932913   0.0049569   
02271   160.6783821   0.0049508   0.0057419   160.6949276   0.0049391   80.2250503   53.4833668   0.0002522   160.5791262   0.0049684   0.00576   161.0294951   0.0049569   
02272   161.094613   0.0049508   0.005744   161.1127202   0.0049391   80.4331944   53.6221296   0.0002528   160.9871212   0.0049684   0.0057621   161.4397117   0.0049569   
02273   161.5315976   0.0049508   0.0057462   161.5511046   0.0049391   80.6521185   53.768079   0.0002535   161.4224382   0.0049684   0.0057642   161.8770158   0.0049569   
02274   161.9656775   0.0049508   0.0057484   161.9866922   0.0049392   80.8695936   53.9130624   0.0002542   161.8559969   0.0049684   0.0057664   162.3122211   0.0049569   
02275   162.3987912   0.0049508   0.0057505   162.4211448   0.0049392   81.0866162   54.0577441   0.0002549   162.2876461   0.0049684   0.0057686   162.74572   0.0049569   
02276   162.792628   0.0049508   0.0057525   162.8177238   0.0049392   81.2841682   54.1894455   0.0002555   162.6756275   0.0049684   0.0057705   163.138164   0.0049569   
02277   163.2239914   0.0049508   0.0057547   163.2501567   0.0049392   81.5001922   54.3334614   0.0002562   163.1064384   0.0049684   0.0057727   163.5707439   0.0049569   
02278   163.5464435   0.0049508   0.0057563   163.5744491   0.0049392   81.661829   54.4412193   0.0002567   163.4267284   0.0049684   0.0057743   163.8935452   0.0049569   
02279   163.8911313   0.0049508   0.0057581   163.919014   0.0049392   81.8350304   54.5566869   0.0002572   163.7777544   0.0049684   0.0057761   164.2437389   0.0049569   
02280   164.322612   0.0049509   0.0057603   164.3532543   0.0049392   82.0519041   54.7012694   0.0002579   164.2120099   0.0049684   0.0057782   164.6800256   0.0049569   
02281   164.7545553   0.0049509   0.0057625   164.7868859   0.0049393   82.2683444   54.8455629   0.0002586   164.6478701   0.0049684   0.0057804   165.1179477   0.0049569   
02282   165.1467163   0.0049511   0.0057647   165.1808671   0.0049395   82.4650589   54.9767059   0.0002592   165.0691476   0.0049684   0.0057825   165.541174   0.0049569   
02283   165.5548631   0.0049513   0.0057669   165.5904509   0.0049396   82.6693539   55.1129026   0.0002598   165.5059171   0.0049684   0.0057847   165.9793295   0.0049569   
02284   164.7022048   0.0049594   0.0057706   164.7236837   0.0049477   82.2375564   54.8250376   0.0002585   164.2843213   0.0049784   0.0057885   164.7429027   0.0049668   
02285   165.1364795   0.0049594   0.0057728   165.1593972   0.0049477   82.4551478   54.9700985   0.0002591   164.7204562   0.0049784   0.0057907   165.181135   0.0049668   
02286   165.5718255   0.0049594   0.005775   165.5961016   0.0049477   82.6732333   55.1154889   0.0002598   165.1563033   0.0049784   0.0057929   165.6189394   0.0049668   
02287   166.0014537   0.0049594   0.0057772   166.027488   0.0049478   82.8888363   55.2592242   0.0002605   165.590294   0.0049784   0.0057951   166.0556651   0.0049668   
02288   166.1314717   0.0049598   0.0057782   166.1555839   0.0049482   82.9516429   55.3010952   0.0002607   165.81269   0.0049784   0.0057962   166.261422   0.0049668   
02289   166.365418   0.0049604   0.00578   166.3876302   0.0049487   83.0675212   55.3783475   0.0002611   165.9913552   0.0049784   0.0057971   166.4432296   0.0049668   
02290   166.4585303   0.0049622   0.0057823   166.4927988   0.0049506   83.1221271   55.4147514   0.0002612   165.974112   0.0049803   0.0057989   166.4537425   0.0049688   
02291   166.8512299   0.0049624   0.0057845   166.887658   0.0049507   83.3193152   55.5462101   0.0002618   166.397585   0.0049803   0.0058011   166.8796134   0.0049688   
02292   158.2951307   0.0050213   0.0058004   158.2932865   0.0050096   79.0256968   52.6837979   0.0002484   157.7485114   0.0050401   0.0058171   158.0757887   0.0050284   
02293   158.73071   0.0050213   0.0058025   158.7303359   0.0050096   79.243909   52.8292727   0.0002491   158.1841225   0.0050401   0.0058193   158.5135214   0.0050284   
02294   159.1676498   0.0050213   0.0058047   159.1687202   0.0050096   79.4628327   52.9752218   0.0002497   158.6193388   0.0050401   0.0058215   158.9508254   0.0050284   
02295   159.6026903   0.0050213   0.0058069   159.6052622   0.0050096   79.6807982   53.1205322   0.0002504   159.0548422   0.0050401   0.0058237   159.3888473   0.0050284   
02296   160.0396368   0.0050213   0.0058091   160.0436465   0.0050096   79.899722   53.2664814   0.0002511   159.490066   0.0050401   0.0058258   159.8261516   0.0050284   
02297   160.3848189   0.0050219   0.0058114   160.3923079   0.0050102   80.073758   53.3825054   0.0002517   159.948317   0.0050401   0.0058282   160.2916759   0.0050284   
02298   160.8210683   0.0050219   0.0058136   160.8299994   0.0050102   80.2923242   53.5282161   0.0002523   160.3837636   0.0050401   0.0058303   160.7291903   0.0050284   
02299   161.2580307   0.0050219   0.0058158   161.2683837   0.0050102   80.5112482   53.6741654   0.000253   160.8190101   0.0050401   0.0058325   161.1664941   0.0050284   
02300   161.6923849   0.0050219   0.005818   161.7042482   0.0050102   80.7289069   53.8192713   0.0002537   161.2550196   0.0050401   0.0058347   161.6045753   0.0050284   
02301   162.1044944   0.0050221   0.0058202   162.1185211   0.0050104   80.935422   53.956948   0.0002543   161.6986379   0.0050401   0.0058369   162.047801   0.0050284   
02302   162.5350447   0.0050221   0.0058224   162.550726   0.0050104   81.151205   54.1008033   0.000255   162.1357699   0.0050401   0.0058391   162.4869665   0.0050284   
02303   162.9682556   0.0050222   0.0058246   162.9853907   0.0050104   81.3683633   54.2455756   0.0002557   162.5720287   0.0050401   0.0058413   162.9249376   0.0050284   
02304   163.376883   0.0050223   0.0058269   163.3962938   0.0050106   81.5737155   54.382477   0.0002563   163.0158448   0.0050401   0.0058435   163.3705913   0.0050284   
02305   163.7838761   0.0050225   0.0058291   163.8053509   0.0050108   81.7781306   54.5187537   0.000257   163.4602834   0.0050401   0.0058458   163.8150918   0.0050284   
02306   164.2208672   0.0050225   0.0058313   164.2437353   0.0050108   81.9970545   54.664703   0.0002577   163.8955564   0.0050401   0.0058479   164.2523956   0.0050284   
02307   164.5670558   0.0050231   0.0058336   164.5931889   0.0050114   82.172036   54.7813573   0.0002582   164.3548962   0.0050401   0.0058502   164.7179538   0.0050284   
02308   164.9835382   0.0050232   0.0058358   165.0113512   0.0050115   82.3810849   54.9207232   0.0002589   164.73039   0.0050404   0.0058525   165.1074606   0.0050287   
02309   165.4165962   0.0050233   0.005838   165.4458834   0.0050115   82.5980911   55.065394   0.0002596   165.1673661   0.0050404   0.0058546   165.5438922   0.0050287   
02310   165.8455128   0.0050233   0.0058402   165.8761624   0.0050116   82.8130629   55.2087086   0.0002602   165.6053096   0.0050404   0.0058568   165.9836271   0.0050287   
02311   166.2730482   0.0050234   0.0058424   166.3052497   0.0050116   83.0273862   55.3515908   0.0002609   166.0432733   0.0050404   0.005859   166.4233642   0.0050287   
02312   166.6964717   0.0050234   0.0058446   166.7302158   0.0050117   83.2395482   55.4930321   0.0002616   166.4796242   0.0050404   0.0058612   166.8558121   0.0050287   
02313   166.8215653   0.0050243   0.0058461   166.8466245   0.0050126   83.2982281   55.532152   0.0002617   166.7308994   0.0050408   0.0058629   167.0733233   0.0050292   
02314   167.2022684   0.0050247   0.0058484   167.2293832   0.0050129   83.4893976   55.6595984   0.0002623   167.1694314   0.0050409   0.0058651   167.5049547   0.0050293   
02315   167.5548912   0.0050252   0.0058507   167.5842172   0.0050135   83.6660627   55.7773752   0.0002629   167.5927341   0.0050411   0.0058675   167.9270247   0.0050295   
02316   160.4853443   0.005074   0.0058639   160.4816864   0.0050622   80.1181023   53.4120682   0.0002518   160.6304318   0.0050896   0.0058808   160.8670874   0.0050779   
02317   160.9100261   0.0050741   0.0058661   160.9081094   0.0050622   80.33102   53.5540133   0.0002525   160.9252477   0.0050903   0.005883   161.179033   0.0050786   
02318   161.3436087   0.0050741   0.0058683   161.3431799   0.0050623   80.5483148   53.6988765   0.0002532   161.3452483   0.0050904   0.0058852   161.5991587   0.0050786   
02319   161.7801644   0.0050741   0.0058705   161.7811874   0.0050623   80.7670493   53.8446995   0.0002539   161.7805493   0.0050904   0.0058874   162.036654   0.0050786   
02320   162.2131987   0.0050741   0.0058727   162.2157755   0.0050623   80.9840754   53.9893836   0.0002545   162.2169658   0.0050904   0.0058895   162.4751317   0.0050786   
02321   162.6461611   0.0050742   0.0058749   162.6503209   0.0050623   81.2010607   54.1340405   0.0002552   162.653385   0.0050904   0.0058917   162.9135909   0.0050786   
02322   163.0713427   0.0050742   0.0058771   163.0772208   0.0050624   81.4142371   54.276158   0.0002559   163.0940103   0.0050904   0.0058939   163.3508475   0.0050786   
02323   163.5057434   0.0050742   0.0058793   163.5131312   0.0050624   81.631919   54.4212793   0.0002566   163.5300472   0.0050904   0.0058961   163.7888814   0.0050786   
02324   163.9027042   0.0050745   0.0058815   163.9126181   0.0050627   81.8313784   54.5542523   0.0002572   163.9769896   0.0050904   0.0058984   164.2386156   0.0050786   
02325   164.3331646   0.0050745   0.0058837   164.3447387   0.0050627   82.0471977   54.6981318   0.0002579   164.4142068   0.0050904   0.0059005   164.6769744   0.0050786   
02326   164.7479427   0.0050747   0.005886   164.761446   0.0050628   82.2552857   54.8368571   0.0002585   164.8555844   0.0050904   0.0059028   165.1217793   0.0050786   
02327   165.1801937   0.0050747   0.0058882   165.1951881   0.0050629   82.4718902   54.9812601   0.0002592   165.2922878   0.0050904   0.005905   165.56053   0.0050786   
02328   165.6157009   0.0050747   0.0058904   165.632138   0.0050629   82.6900922   55.1267281   0.0002599   165.7278311   0.0050904   0.0059071   165.998469   0.0050786   
02329   166.0459237   0.0050748   0.0058926   166.0639584   0.0050629   82.9057221   55.2704814   0.0002605   166.1655717   0.0050904   0.0059093   166.4367422   0.0050786   
02330   166.4822009   0.0050748   0.0058947   166.5016203   0.0050629   83.1242818   55.4161879   0.0002612   166.6011697   0.0050904   0.0059115   166.8741447   0.0050786   
02331   166.8940786   0.0050749   0.005897   166.9153728   0.0050631   83.3307676   55.553845   0.0002619   167.0115819   0.0050905   0.0059137   167.2749894   0.0050788   
02332   167.2542794   0.0050754   0.0058992   167.2796661   0.0050636   83.5130604   55.6753736   0.0002624   167.4535082   0.0050905   0.005916   167.7239676   0.0050788   
02333   167.5135886   0.0050765   0.0059017   167.5405117   0.0050647   83.6436787   55.7624524   0.0002629   167.9169296   0.0050905   0.0059183   168.1963473   0.0050788   
02334   167.725408   0.005078   0.0059042   167.7558205   0.0050661   83.7507331   55.8338221   0.0002632   168.2633134   0.0050914   0.0059209   168.5457029   0.0050797   
02335   167.9071906   0.0050796   0.0059068   167.9423119   0.0050678   83.8432501   55.8955001   0.0002635   167.9130579   0.0050956   0.0059234   168.2116793   0.0050839   
02336   168.2021211   0.0050805   0.0059092   168.240927   0.0050687   83.9921747   55.9947831   0.0002639   168.292882   0.005096   0.0059257   168.5935343   0.0050843   
02337   168.5963825   0.0050808   0.0059114   168.6367696   0.0050689   84.1898614   56.1265743   0.0002646   168.7370899   0.005096   0.0059279   169.0387292   0.0050843   
02338   161.6560033   0.0051291   0.0059247   161.6523811   0.0051172   80.7021857   53.8014571   0.0002536   161.9466943   0.0051438   0.0059415   162.1842505   0.005132   
02339   162.065426   0.0051293   0.005927   162.0642011   0.0051173   80.907773   53.9385154   0.0002543   162.3902267   0.0051438   0.0059437   162.6294446   0.005132   
02340   162.4966895   0.0051293   0.0059292   162.4971663   0.0051174   81.1240333   54.0826889   0.000255   162.826968   0.0051438   0.0059459   163.0685754   0.005132   
02341   162.9278111   0.0051294   0.0059314   162.9299534   0.0051174   81.3402145   54.2268097   0.0002556   163.2638313   0.0051438   0.0059481   163.5076987   0.005132   
02342   163.364768   0.0051294   0.0059336   163.3683377   0.0051174   81.5591384   54.3727589   0.0002563   163.6991077   0.0051438   0.0059503   163.9450025   0.005132   
02343   163.7804614   0.0051295   0.0059358   163.7862789   0.0051175   81.7677584   54.5118389   0.000257   164.1400141   0.0051438   0.0059525   164.3894013   0.005132   
02344   164.2128219   0.0051295   0.005938   164.2202589   0.0051176   81.9844228   54.6562819   0.0002577   164.5766735   0.0051438   0.0059547   164.828025   0.005132   
02345   164.6466767   0.0051295   0.0059402   164.6555866   0.0051176   82.2018581   54.8012388   0.0002583   165.01286   0.0051438   0.0059569   165.2662841   0.005132   
02346   164.5407645   0.005133   0.0059432   164.5605111   0.0051211   82.1544283   54.7696189   0.0002582   164.7833188   0.0051478   0.0059599   165.0972856   0.005136   
02347   164.9630617   0.0051331   0.0059454   164.9848293   0.0051212   82.3663771   54.9109181   0.0002589   165.2229092   0.0051478   0.0059621   165.5385934   0.005136   
02348   165.3983112   0.0051331   0.0059476   165.4214913   0.0051212   82.5844363   55.0562908   0.0002595   165.6605029   0.0051478   0.0059643   165.9736073   0.005136   
02349   165.8277094   0.0051332   0.0059498   165.8524107   0.0051212   82.7996188   55.1997459   0.0002602   166.0981045   0.0051478   0.0059665   166.4132105   0.005136   
02350   166.0992365   0.0051342   0.0059522   166.1277098   0.0051223   82.9364888   55.2909925   0.0002606   166.5859109   0.0051478   0.0059689   166.8963258   0.005136   
02351   166.5353666   0.0051342   0.0059544   166.565229   0.0051223   83.1549675   55.436645   0.0002613   167.0220424   0.0051478   0.0059711   167.3329966   0.005136   
02352   166.9620664   0.0051343   0.0059566   166.9933612   0.0051224   83.368708   55.5791387   0.000262   167.4612302   0.0051478   0.0059733   167.7722303   0.005136   
02353   167.398194   0.0051343   0.0059588   167.4308794   0.0051224   83.5872123   55.7248082   0.0002627   167.8973414   0.0051478   0.0059755   168.2090164   0.005136   
02354   167.8251195   0.0051344   0.005961   167.8594455   0.0051224   83.8013519   55.8675679   0.0002633   168.2728688   0.0051481   0.0059776   168.5957007   0.0051363   
02355   168.1636704   0.0051344   0.0059627   168.1980213   0.0051225   83.9703779   55.9802519   0.0002639   168.6205671   0.0051481   0.0059794   168.9418709   0.0051363   
02356   168.5426454   0.0051345   0.0059647   168.5784689   0.0051225   84.1608746   56.1072497   0.0002645   169.0142326   0.0051481   0.0059814   169.3362304   0.0051363   
02357   168.9375557   0.0051347   0.0059669   168.9751098   0.0051228   84.3587763   56.2391842   0.0002651   169.4569048   0.0051481   0.0059836   169.7811635   0.0051363   
02358   160.7797426   0.005191   0.0059823   160.7767001   0.005179   80.2649414   53.509961   0.0002523   161.246833   0.005205   0.0059992   161.5204115   0.0051931   
02359   161.2124299   0.0051911   0.0059844   161.2112384   0.005179   80.4819532   53.6546355   0.000253   161.6825816   0.005205   0.0060014   161.9585157   0.0051931   
02360   161.649407   0.0051911   0.0059866   161.6496227   0.005179   80.7008773   53.8005848   0.0002536   162.1179011   0.005205   0.0060036   162.3958196   0.0051931   
02361   162.0815561   0.0051911   0.0059888   162.0832935   0.0051791   80.9173964   53.9449309   0.0002543   162.5256075   0.0052051   0.0060058   162.7986441   0.0051933   
02362   162.5127994   0.0051911   0.005991   162.5166256   0.0051791   81.1337825   54.0891883   0.000255   162.9607233   0.0052051   0.006008   163.2372126   0.0051933   
02363   162.9453677   0.0051912   0.0059932   162.9507614   0.0051791   81.3505835   54.2337224   0.0002557   163.3971036   0.0052051   0.0060102   163.6761275   0.0051933   
02364   163.3608678   0.0051913   0.0059954   163.3680552   0.0051793   81.5589376   54.3726251   0.0002563   163.8355612   0.0052052   0.0060124   164.1114336   0.0051933   
02365   163.7939248   0.0051913   0.0059976   163.8025964   0.0051793   81.7759494   54.5172996   0.000257   164.223326   0.0052054   0.0060146   164.5068784   0.0051935   
02366   164.2309236   0.0051913   0.0059998   164.2409807   0.0051793   81.9948732   54.6632488   0.0002577   164.6586719   0.0052054   0.0060168   164.9441825   0.0051935   
02367   164.6679253   0.0051913   0.006002   164.679365   0.0051793   82.2137973   54.8091982   0.0002584   165.0940207   0.0052054   0.0060189   165.3814863   0.0051935   
02368   165.0525369   0.0051917   0.0060043   165.0666794   0.0051796   82.4071478   54.9380985   0.000259   165.5426805   0.0052054   0.0060212   165.8339861   0.0051935   
02369   165.4865368   0.0051917   0.0060065   165.502174   0.0051796   82.6246481   55.0830987   0.0002597   165.9791089   0.0052054   0.0060234   166.272132   0.0051935   
02370   165.9153267   0.0051917   0.0060087   165.9325232   0.0051797   82.8396198   55.2264132   0.0002603   166.4167903   0.0052054   0.0060256   166.7126671   0.0051935   
02371   166.3474341   0.0051918   0.0060109   166.3660631   0.0051797   83.0561469   55.3707646   0.000261   166.7954401   0.0052057   0.0060278   167.097528   0.0051938   
02372   166.7608741   0.0051919   0.0060131   166.7819305   0.0051799   83.2640268   55.5093512   0.0002617   167.2350843   0.0052057   0.00603   167.5408239   0.0051938   
02373   162.3729514   0.0052236   0.0060227   162.3574567   0.0052115   81.0538307   54.0358871   0.0002547   162.5460495   0.0052398   0.0060404   162.8016224   0.0052278   
02374   162.8074163   0.0052236   0.0060249   162.7933901   0.0052115   81.2715605   54.1810403   0.0002554   162.9829111   0.0052398   0.0060426   163.2399505   0.0052278   
02375   163.2347313   0.0052237   0.0060271   163.2222656   0.0052116   81.4856698   54.3237799   0.0002561   163.4227946   0.0052398   0.0060448   163.6812535   0.0052278   
02376   163.6717175   0.0052237   0.0060293   163.66065   0.0052116   81.7045938   54.4697292   0.0002568   163.8581015   0.0052398   0.006047   164.1185575   0.0052278   
02377   164.1062953   0.0052237   0.0060315   164.0964777   0.0052116   81.9222772   54.6148515   0.0002575   164.2943049   0.0052398   0.0060492   164.5558359   0.0052278   
02378   164.5432875   0.0052237   0.0060337   164.534862   0.0052116   82.1412008   54.7608005   0.0002581   164.7296173   0.0052398   0.0060513   164.9931399   0.0052278   
02379   164.965873   0.0052238   0.0060359   164.9588039   0.0052117   82.3527527   54.9018351   0.0002588   165.0908653   0.0052402   0.0060536   165.3609915   0.0052282   
02380   165.3943231   0.0052238   0.0060381   165.3882611   0.0052117   82.5672683   55.0448456   0.0002595   165.5230564   0.0052402   0.0060557   165.7948067   0.0052282   
02381   165.8151154   0.0052239   0.0060403   165.8105251   0.0052118   82.7781346   55.1854231   0.0002601   165.9568065   0.0052402   0.006058   166.2203326   0.0052283   
02382   166.2364559   0.005224   0.0060425   166.234408   0.0052119   82.9897651   55.3265101   0.0002608   166.390866   0.0052402   0.0060601   166.657264   0.0052283   
02383   166.6734646   0.005224   0.0060447   166.6727924   0.0052119   83.2086891   55.4724594   0.0002615   166.8261982   0.0052402   0.0060623   167.094568   0.0052283   
02384   167.1017467   0.005224   0.0060469   167.1023485   0.005212   83.4231739   55.6154493   0.0002622   167.2621743   0.0052402   0.0060645   167.5324177   0.0052283   
02385   167.5291238   0.0052241   0.0060491   167.5313088   0.005212   83.637463   55.7583086   0.0002628   167.700618   0.0052402   0.0060667   167.9726115   0.0052283   
02386   167.9530563   0.0052242   0.0060513   167.9571499   0.0052121   83.8501782   55.9001188   0.0002635   168.1272111   0.0052403   0.0060689   168.4004071   0.0052283   
02387   162.1222765   0.0052321   0.0060298   162.09993   0.0052199   80.924943   53.949962   0.0002543   163.0512537   0.005241   0.0060442   163.3411437   0.005229   
02388   162.5592321   0.0052321   0.006032   162.5383143   0.0052199   81.1438671   54.0959114   0.000255   163.486538   0.005241   0.0060464   163.7784477   0.005229   
02389   162.9961909   0.0052321   0.0060342   162.9766987   0.0052199   81.3627914   54.2418609   0.0002557   163.9218252   0.005241   0.0060485   164.2157516   0.005229   
02390   163.4183721   0.0052321   0.0060363   163.4006441   0.0052199   81.5746165   54.3830777   0.0002564   164.3390214   0.005241   0.0060506   164.6356266   0.005229   
02391   163.8553371   0.0052321   0.0060385   163.8390284   0.0052199   81.7935407   54.5290271   0.0002571   164.7743141   0.005241   0.0060528   165.0729304   0.005229   
02392   164.2872747   0.0052321   0.0060407   164.2723382   0.0052199   82.009954   54.6733027   0.0002577   165.20259   0.005241   0.006055   165.5032867   0.005229   
02393   164.7231765   0.0052321   0.0060428   164.7096325   0.0052199   82.2283378   54.8188919   0.0002584   165.6368946   0.005241   0.0060571   165.939554   0.005229   
02394   165.1595213   0.0052321   0.006045   165.147365   0.0052199   82.4469492   54.9646328   0.0002591   166.0717949   0.005241   0.0060593   166.3763928   0.005229   
02395   165.5885583   0.0052321   0.0060472   165.5780382   0.0052199   82.6621152   55.1080768   0.0002598   166.5004859   0.005241   0.0060615   166.8067065   0.005229   
02396   166.0151349   0.0052321   0.0060493   166.0060043   0.0052199   82.8759395   55.2506263   0.0002604   166.9267439   0.005241   0.0060636   167.2346007   0.005229   
02397   166.4462386   0.0052321   0.0060515   166.4384498   0.0052199   83.0918295   55.394553   0.0002611   167.3574138   0.005241   0.0060658   167.6668366   0.005229   
02398   166.8732574   0.0052321   0.0060537   166.8669434   0.00522   83.3058047   55.5372031   0.0002618   167.7871325   0.005241   0.0060679   168.09855   0.005229   
02399   167.3070186   0.0052321   0.0060558   167.3021505   0.00522   83.5231433   55.6820955   0.0002625   168.2222082   0.005241   0.0060701   168.5357571   0.005229   
02400   167.6959801   0.0052324   0.0060581   167.6947918   0.0052202   83.7193417   55.8128945   0.0002631   168.6307802   0.0052411   0.0060723   168.9488154   0.0052291   
02401   168.1039583   0.0052326   0.0060603   168.1044654   0.0052204   83.9239606   55.9493071   0.0002637   168.9086488   0.0052421   0.0060746   169.2252079   0.0052301   
02402   168.5387963   0.0052326   0.0060625   168.5404923   0.0052204   84.1417161   56.0944774   0.0002644   169.3443509   0.0052421   0.0060768   169.6629255   0.0052301   
02403   166.6846294   0.0052457   0.0060663   166.6983575   0.0052335   83.2224635   55.4816423   0.0002615   166.4119143   0.0052627   0.0060825   166.643763   0.0052507   
02404   164.7467064   0.005246   0.0060569   164.747014   0.0052338   82.2458582   54.8305721   0.0002585   164.549668   0.0052627   0.0060731   164.7484708   0.0052507   
02405   165.1724526   0.005246   0.006059   165.1746001   0.0052338   82.4594018   54.9729345   0.0002591   164.976807   0.0052627   0.0060753   165.1780895   0.0052507   
02406   165.600917   0.005246   0.0060612   165.604436   0.0052338   82.6741032   55.1160688   0.0002598   165.4032489   0.0052627   0.0060774   165.6063784   0.0052507   
02407   165.9913403   0.005246   0.0060631   165.9912387   0.0052338   82.8673852   55.2449234   0.0002604   165.8168348   0.0052627   0.0060795   166.0163521   0.0052507   
02408   166.4240085   0.005246   0.0060653   166.4252733   0.0052338   83.0841032   55.3894021   0.0002611   166.2467705   0.0052627   0.0060816   166.448281   0.0052507   
02409   166.8469253   0.0052461   0.0060675   166.8503115   0.0052339   83.296372   55.5309147   0.0002618   166.6838462   0.0052627   0.0060838   166.888552   0.0052507   
02410   167.2561873   0.0052461   0.0060696   167.2622693   0.0052339   83.5021561   55.6681041   0.0002624   167.0948028   0.0052627   0.0060859   167.3040749   0.0052507   
02411   167.6712539   0.0052463   0.0060718   167.6814743   0.0052341   83.7115781   55.8077188   0.0002631   167.5082222   0.0052629   0.0060881   167.7193604   0.0052508   
02412   167.7328712   0.0052486   0.0060744   167.7561881   0.0052364   83.749169   55.8327793   0.0002632   167.8508307   0.0052636   0.0060907   168.1033184   0.0052515   
02413   168.1612048   0.0052486   0.0060766   168.1857565   0.0052364   83.9637676   55.9758451   0.0002639   168.2911962   0.0052636   0.0060929   168.5447334   0.0052515   
02414   168.4904595   0.0052487   0.0060784   168.5162257   0.0052365   84.1287983   56.0858655   0.0002644   168.6131748   0.0052637   0.0060946   168.8730975   0.0052517   
02415   168.8348894   0.0052488   0.0060802   168.8622904   0.0052366   84.3015456   56.2010304   0.0002649   168.9771377   0.0052637   0.0060964   169.2387631   0.0052517   
02416   169.2539251   0.0052489   0.0060824   169.2826376   0.0052367   84.5113448   56.3408965   0.0002656   169.4015104   0.0052637   0.0060986   169.6633965   0.0052517   
02417   164.8432508   0.0052643   0.0060756   164.8595966   0.005252   82.3035456   54.8690304   0.0002586   165.1134695   0.0052731   0.0060862   165.2978149   0.005261   
02418   165.2653801   0.0052644   0.0060778   165.2851543   0.0052521   82.5164713   55.0109809   0.0002593   165.5414007   0.0052731   0.0060884   165.7286101   0.005261   
02419   165.7014678   0.0052644   0.00608   165.7226953   0.0052521   82.7350038   55.1566692   0.00026   165.9771508   0.0052731   0.0060906   166.1663922   0.005261   
02420   166.1267938   0.0052645   0.0060822   166.1503657   0.0052522   82.9485404   55.299027   0.0002607   166.4267055   0.0052731   0.0060928   166.6134566   0.005261   
02421   166.5614391   0.0052645   0.0060844   166.58626   0.0052522   83.1661016   55.4440677   0.0002613   166.8611855   0.0052731   0.006095   167.0498858   0.005261   
02422   166.990515   0.0052645   0.0060866   167.01673   0.0052522   83.3808699   55.5872466   0.000262   167.2864237   0.0052731   0.0060971   167.4764327   0.005261   
02423   167.4246218   0.0052645   0.0060887   167.4524461   0.0052522   83.5984429   55.7322953   0.0002627   167.7181747   0.0052731   0.0060993   167.9104954   0.005261   
02424   167.8560651   0.0052645   0.0060909   167.8851416   0.0052522   83.8145515   55.8763677   0.0002634   168.1524925   0.0052731   0.0061014   168.3466462   0.005261   
02425   168.2895823   0.0052645   0.0060931   168.3203991   0.0052523   84.0319093   56.0212728   0.0002641   168.5862807   0.0052731   0.0061036   168.782451   0.005261   
02426   168.7086738   0.0052646   0.0060953   168.7414806   0.0052523   84.2420479   56.1613653   0.0002647   169.0176006   0.0052731   0.0061058   169.2147364   0.005261   
02427   169.1388512   0.0052646   0.0060975   169.1731636   0.0052524   84.4575886   56.3050591   0.0002654   169.4564848   0.0052731   0.006108   169.6543206   0.005261   
02428   160.6573185   0.0053232   0.0061133   160.6389739   0.0053108   80.195218   53.4634787   0.000252   160.9031241   0.005332   0.0061239   161.0727013   0.0053198   
02429   161.0912042   0.0053232   0.0061155   161.0744728   0.0053109   80.4126969   53.6084646   0.0002527   161.3156337   0.0053322   0.0061261   161.4822117   0.00532   
02430   161.5229023   0.0053233   0.0061177   161.5079332   0.0053109   80.6291559   53.7527706   0.0002534   161.7520387   0.0053322   0.0061283   161.9212413   0.00532   
02431   161.9597806   0.0053233   0.0061199   161.9463175   0.0053109   80.8480798   53.8987199   0.0002541   162.1872628   0.0053322   0.0061305   162.3585452   0.00532   
02432   162.3937638   0.0053233   0.0061221   162.3818839   0.0053109   81.0656013   54.0437342   0.0002548   162.6237046   0.0053322   0.0061327   162.7956527   0.00532   
02433   162.787743   0.0053236   0.0061244   162.7788959   0.0053112   81.2638627   54.1759085   0.0002554   163.0716243   0.0053322   0.0061349   163.2453453   0.00532   
02434   163.2226981   0.0053236   0.0061265   163.2154359   0.0053112   81.481866   54.321244   0.0002561   163.5074692   0.0053322   0.0061371   163.6830581   0.00532   
02435   163.5915135   0.005324   0.0061288   163.5871728   0.0053116   81.6674929   54.4449952   0.0002567   163.9560468   0.0053322   0.0061394   164.1174613   0.00532   
02436   164.0151485   0.0053241   0.006131   164.0128984   0.0053117   81.8800777   54.5867185   0.0002573   164.3960003   0.0053322   0.0061416   164.556231   0.00532   
02437   164.4450936   0.0053241   0.0061332   164.4445203   0.0053118   82.0956232   54.7304155   0.000258   164.8333733   0.0053322   0.0061438   164.9958479   0.00532   
02438   164.878678   0.0053242   0.0061354   164.8796768   0.0053118   82.3129341   54.8752894   0.0002587   165.2696562   0.0053322   0.006146   165.4341273   0.00532   
02439   165.1944759   0.0053249   0.0061378   165.1986403   0.0053126   82.4722699   54.9815132   0.0002592   165.7415456   0.0053322   0.0061483   165.9076187   0.00532   
02440   165.6086147   0.0053251   0.00614   165.6148034   0.0053127   82.6801134   55.1200756   0.0002598   166.1831855   0.0053322   0.0061505   166.3520001   0.00532   
02441   166.0443498   0.0053251   0.0061422   166.0520337   0.0053127   82.8984619   55.2656413   0.0002605   166.618802   0.0053322   0.0061527   166.7896477   0.00532   
02442   159.150084   0.0053731   0.0061556   159.1282085   0.0053607   79.4399141   52.9599427   0.0002497   159.4549263   0.005382   0.0061663   159.4763872   0.0053697   
02443   159.5828239   0.0053732   0.0061578   159.5626319   0.0053607   79.6568307   53.1045538   0.0002504   159.8912158   0.005382   0.0061684   159.9149932   0.0053697   
02444   160.017692   0.0053732   0.00616   159.9991094   0.0053607   79.8747941   53.2498628   0.000251   160.3269671   0.005382   0.0061706   160.3528604   0.0053697   
02445   160.4545632   0.0053732   0.0061622   160.4374938   0.0053607   80.0937181   53.3958121   0.0002517   160.7621576   0.005382   0.0061728   160.7901641   0.0053697   
02446   160.8749763   0.0053733   0.0061644   160.8601584   0.0053608   80.3047666   53.5365111   0.0002524   161.2015996   0.005382   0.006175   161.2327452   0.0053697   
02447   161.2870796   0.0053734   0.0061666   161.2746188   0.005361   80.5116811   53.674454   0.000253   161.6436705   0.005382   0.0061772   161.6777694   0.0053697   
02448   161.722319   0.0053735   0.0061688   161.711434   0.005361   80.7298166   53.8198777   0.0002537   162.0793592   0.005382   0.0061794   162.1155285   0.0053697   
02449   162.1499371   0.0053735   0.006171   162.1409685   0.0053611   80.9443005   53.962867   0.0002544   162.5174245   0.005382   0.0061816   162.5553474   0.0053697   
02450   162.5768529   0.0053736   0.0061732   162.569794   0.0053611   81.1584515   54.1056343   0.0002551   162.9085701   0.0053822   0.0061838   162.9529709   0.00537   
02451   163.013752   0.0053736   0.0061754   163.0081784   0.0053611   81.3773756   54.2515837   0.0002557   163.3437868   0.0053822   0.006186   163.3902752   0.00537   
02452   163.4479148   0.0053736   0.0061776   163.4439483   0.0053611   81.5949822   54.3966548   0.0002564   163.7327198   0.0053824   0.0061882   163.7907749   0.0053702   
02453   163.8825458   0.0053736   0.0061798   163.8801436   0.0053611   81.8128161   54.5418774   0.0002571   164.1686168   0.0053824   0.0061904   164.2287627   0.0053702   
02454   164.3167305   0.0053736   0.006182   164.3158917   0.0053612   82.0304193   54.6869462   0.0002578   164.6046476   0.0053824   0.0061926   164.666886   0.0053702   
02455   164.7498454   0.0053737   0.0061842   164.7505756   0.0053612   82.2475066   54.8316711   0.0002585   165.0410085   0.0053824   0.0061947   165.1053334   0.0053702   
02456   165.1851675   0.0053737   0.0061864   165.1873866   0.0053612   82.4656287   54.9770858   0.0002592   165.4767294   0.0053824   0.0061969   165.54307   0.0053702   
02457   165.5002588   0.0053744   0.0061888   165.5069206   0.005362   82.625169   55.083446   0.0002597   165.946425   0.0053824   0.0061993   166.0126996   0.0053702   
02458   165.935166   0.0053745   0.006191   165.9433338   0.005362   82.8431083   55.2287389   0.0002603   166.3822624   0.0053824   0.0062015   166.4506242   0.0053702   
02459   166.3559021   0.0053746   0.0061932   166.3659175   0.0053621   83.054229   55.369486   0.000261   166.8221578   0.0053824   0.0062037   166.8930601   0.0053702   
02460   166.7867034   0.0053746   0.0061954   166.7983783   0.0053621   83.2702719   55.5135146   0.0002617   167.2594161   0.0053824   0.0062059   167.329627   0.0053702   
02461   167.2170375   0.0053746   0.0061976   167.2306306   0.0053622   83.4860683   55.6573788   0.0002623   167.6948673   0.0053824   0.006208   167.7663285   0.0053702   
02462   163.7196829   0.0054004   0.0062058   163.7233137   0.0053879   81.7335829   54.4890553   0.0002569   164.0491297   0.0054087   0.0062163   164.2281839   0.0053964   
02463   164.1549275   0.0054004   0.006208   164.1600577   0.0053879   81.9516839   54.634456   0.0002575   164.4847103   0.0054087   0.0062185   164.6660302   0.0053964   
02464   164.5918558   0.0054004   0.0062101   164.598442   0.0053879   82.1706082   54.7804055   0.0002582   164.9199849   0.0054087   0.0062207   165.1033341   0.0053964   
02465   165.0236091   0.0054004   0.0062123   165.0318766   0.0053879   82.3871028   54.9247352   0.0002589   165.3567584   0.0054087   0.0062229   165.5422347   0.0053964   
02466   165.4561244   0.0054005   0.0062145   165.4660609   0.005388   82.6039513   55.0693008   0.0002596   165.7934383   0.0054087   0.006225   165.9806187   0.0053964   
02467   165.885972   0.0054005   0.0062167   165.8976418   0.005388   82.8195179   55.213012   0.0002603   166.2307624   0.0054087   0.0062272   166.4200919   0.0053964   
02468   166.3118218   0.0054006   0.0062189   166.3253326   0.0053881   83.0331522   55.3554348   0.0002609   166.6693362   0.0054087   0.0062294   166.860669   0.0053964   
02469   166.7337822   0.0054007   0.0062212   166.7491426   0.0053882   83.2447781   55.4965187   0.0002616   167.10922   0.0054087   0.0062316   167.3023949   0.0053964   
02470   167.1685611   0.0054007   0.0062233   167.1852777   0.0053882   83.4626281   55.6417521   0.0002623   167.544663   0.0054087   0.0062338   167.7397114   0.0053964   
02471   167.5882668   0.0054008   0.0062256   167.6075397   0.0053883   83.6734834   55.7823223   0.0002629   167.9783508   0.0054087   0.006236   168.1754167   0.0053964   
02472   168.0099064   0.0054008   0.0062277   168.028903   0.0053883   83.8838285   55.9225523   0.0002636   168.4064493   0.0054087   0.0062381   168.604624   0.0053964   
02473   168.4318866   0.0054009   0.0062299   168.452721   0.0053884   84.0954899   56.0636599   0.0002643   168.7024848   0.0054094   0.0062403   168.9071862   0.0053971   
02474   168.8525219   0.005401   0.0062321   168.8747676   0.0053885   84.3062878   56.2041919   0.0002649   169.0823869   0.0054097   0.0062425   169.294047   0.0053974   
02475   169.1616075   0.0054017   0.0062344   169.1881229   0.0053892   84.4629445   56.3086297   0.0002654   169.4550999   0.0054102   0.0062449   169.6746814   0.0053979   
02476   169.4369492   0.0054026   0.0062366   169.460063   0.00539   84.5988754   56.3992503   0.0002658   169.8902069   0.0054103   0.0062472   170.1094007   0.005398   
02477   169.6909456   0.0054029   0.0062383   169.7206315   0.0053904   84.728644   56.4857627   0.0002662   170.0279695   0.0054111   0.0062487   170.2539042   0.0053988   
02478   169.9676224   0.0054033   0.00624   169.9943088   0.0053908   84.8654141   56.5769427   0.0002667   170.3630065   0.0054113   0.0062506   170.5790358   0.005399   
02479   170.3498633   0.0054034   0.006242   170.3779832   0.0053909   85.0568842   56.7045895   0.0002673   170.7771362   0.0054113   0.0062526   170.9907991   0.005399   
02480   170.5179558   0.0054045   0.006244   170.5415184   0.005392   85.1390561   56.7593707   0.0002675   170.4322943   0.0054151   0.0062548   170.6727551   0.0054028   
02481   170.8592308   0.0054049   0.0062461   170.8849928   0.0053924   85.3107512   56.8738342   0.0002681   170.8295853   0.0054152   0.0062568   171.0625264   0.0054029   
02482   164.4286809   0.0054498   0.0062586   164.41482   0.0054372   82.0794605   54.7196404   0.0002579   164.5758333   0.0054595   0.0062696   164.7204634   0.0054471   
02483   164.8465239   0.00545   0.0062608   164.8349785   0.0054373   82.2893809   54.8595873   0.0002586   165.0168168   0.0054595   0.0062718   165.1632963   0.0054471   
02484   165.2585573   0.0054501   0.0062631   165.2491667   0.0054375   82.4961969   54.9974646   0.0002592   165.4594398   0.0054595   0.006274   165.6081691   0.0054471   
02485   165.6948414   0.0054501   0.0062653   165.6869303   0.0054375   82.7147901   55.1431934   0.0002599   165.8948978   0.0054595   0.0062762   166.0456667   0.0054471   
02486   166.1317768   0.0054501   0.0062674   166.1253146   0.0054375   82.9337141   55.2891427   0.0002606   166.3301777   0.0054595   0.0062784   166.4829708   0.0054471   
02487   166.5655476   0.0054501   0.0062696   166.5607071   0.0054375   83.1511586   55.4341058   0.0002613   166.7662888   0.0054595   0.0062806   166.9212689   0.0054471   
02488   167.0004021   0.0054501   0.0062718   166.9971072   0.0054375   83.3691043   55.5794029   0.000262   167.202153   0.0054595   0.0062827   167.3591834   0.0054471   
02489   167.43518   0.0054502   0.006274   167.4333644   0.0054376   83.5869994   55.7246662   0.0002627   167.6380798   0.0054595   0.0062849   167.7971347   0.0054471   
02490   167.8695632   0.0054502   0.0062762   167.8693325   0.0054376   83.8046608   55.8697739   0.0002633   168.0740062   0.0054595   0.0062871   168.2351491   0.0054471   
02491   168.305221   0.0054502   0.0062784   168.3064736   0.0054376   84.0229435   56.0152957   0.000264   168.5095099   0.0054595   0.0062893   168.6730102   0.0054471   
02492   168.7421764   0.0054502   0.0062806   168.7448579   0.0054376   84.2418677   56.1612451   0.0002647   168.9448071   0.0054595   0.0062915   169.1103144   0.0054471   
02493   169.1726214   0.0054502   0.0062828   169.1768888   0.0054376   84.4575781   56.3050521   0.0002654   169.3816195   0.0054595   0.0062937   169.5494668   0.0054471   
02494   169.5847153   0.0054504   0.006285   169.5909654   0.0054378   84.6645083   56.4430055   0.000266   169.6731288   0.0054603   0.0062959   169.85612   0.0054478   
02495   170.0192228   0.0054504   0.0062872   170.0269401   0.0054378   84.882188   56.5881253   0.0002667   170.1091433   0.0054603   0.0062981   170.2941373   0.0054478   
02496   170.4487006   0.0054505   0.0062894   170.4580331   0.0054378   85.097418   56.731612   0.0002674   170.5455871   0.0054603   0.0063003   170.7330229   0.0054478   
02497   170.8286912   0.0054508   0.0062916   170.8398494   0.0054382   85.2883757   56.8589172   0.000268   170.738481   0.0054615   0.0063025   170.9214146   0.0054491   
02498   171.1352189   0.0054515   0.006294   171.1481041   0.0054389   85.4422356   56.9614904   0.0002685   171.2032389   0.0054615   0.0063048   171.3823406   0.0054491   
02499   171.5279449   0.0054518   0.0062962   171.5424761   0.0054392   85.6389396   57.0926264   0.0002691   171.3462256   0.005463   0.006307   171.5401462   0.0054506   
02500   157.8438504   0.0055441   0.0063199   157.8166483   0.0055314   78.7847992   52.5231995   0.0002476   157.7326125   0.0055554   0.006331   157.754175   0.005543   
02501   158.2644863   0.0055442   0.0063221   158.2395389   0.0055315   78.9960692   52.6640461   0.0002483   158.1725057   0.0055554   0.0063332   158.1962752   0.005543   
02502   158.701391   0.0055442   0.0063243   158.6779233   0.0055315   79.2149933   52.8099955   0.000249   158.607734   0.0055554   0.0063353   158.6335791   0.005543   
02503   159.1367563   0.0055442   0.0063265   159.1148416   0.0055315   79.4331829   52.9554553   0.0002497   159.0432147   0.0055554   0.0063375   159.0715004   0.005543   
02504   159.573103   0.0055442   0.0063287   159.5526727   0.0055315   79.6518332   53.1012221   0.0002503   159.4786091   0.0055554   0.0063397   159.5089746   0.005543   
02505   160.0100183   0.0055442   0.0063309   159.991057   0.0055315   79.8707569   53.2471713   0.000251   159.9138475   0.0055554   0.0063419   159.9462786   0.005543   
02506   160.4469369   0.0055442   0.006333   160.4294414   0.0055315   80.0896812   53.3931208   0.0002517   160.3490889   0.0055554   0.0063441   160.3835826   0.005543   
02507   160.8797103   0.0055442   0.0063352   160.8638742   0.0055316   80.3066175   53.537745   0.0002524   160.7852979   0.0055554   0.0063463   160.8222135   0.005543   
02508   161.3065826   0.0055443   0.0063374   161.2926373   0.0055316   80.5206459   53.6804306   0.0002531   161.1763938   0.0055557   0.0063485   161.2195108   0.0055432   
02509   161.7401499   0.0055443   0.0063396   161.7277523   0.0055317   80.737986   53.825324   0.0002537   161.6125862   0.0055557   0.0063506   161.6578686   0.0055432   
02510   162.1770837   0.0055443   0.0063418   162.1661366   0.0055317   80.9569099   53.9712733   0.0002544   162.0478441   0.0055557   0.0063528   162.0951726   0.0055432   
02511   162.613487   0.0055443   0.006344   162.6040007   0.0055317   81.1755655   54.1170436   0.0002551   162.483262   0.0055557   0.006355   162.5326374   0.0055432   
02512   163.0504274   0.0055443   0.0063462   163.042385   0.0055317   81.3944898   54.2629932   0.0002558   162.9185257   0.0055557   0.0063572   162.9699414   0.0055432   
02513   163.4853414   0.0055443   0.0063484   163.4788253   0.0055317   81.6124771   54.4083181   0.0002565   163.3543861   0.0055557   0.0063594   163.4078368   0.0055432   
02514   163.9216059   0.0055443   0.0063506   163.9165505   0.0055317   81.8310733   54.5540489   0.0002572   163.789697   0.0055557   0.0063616   163.8455093   0.0055432   
02515   164.3585561   0.0055443   0.0063528   164.3549348   0.0055317   82.0499977   54.6999985   0.0002578   164.2249703   0.0055557   0.0063637   164.2828136   0.0055432   
02516   164.7943964   0.0055443   0.006355   164.7922482   0.0055317   82.2684049   54.8456032   0.0002585   164.6604521   0.0055557   0.0063659   164.7205762   0.0055432   
02517   165.2296149   0.0055444   0.0063572   165.228955   0.0055317   82.4864727   54.9909818   0.0002592   165.0548539   0.0055559   0.0063681   165.1245115   0.0055434   
02518   165.6660278   0.0055444   0.0063594   165.6668033   0.0055317   82.7051411   55.1367607   0.0002599   165.4902975   0.0055559   0.0063703   165.5619885   0.0055434   
02519   166.0896349   0.0055444   0.0063616   166.0922236   0.0055318   82.9175517   55.2783678   0.0002606   165.9295238   0.0055559   0.0063725   166.0025276   0.0055434   
02520   166.5259198   0.0055444   0.0063637   166.5299428   0.0055318   83.1361329   55.4240886   0.0002612   166.3650362   0.0055559   0.0063747   166.4399847   0.0055434   
02521   166.9603609   0.0055445   0.0063659   166.9658903   0.0055318   83.3538519   55.5692346   0.0002619   166.7607877   0.0055561   0.0063769   166.8443387   0.0055436   
02522   167.390341   0.0055445   0.0063681   167.397509   0.0055318   83.5692977   55.7128651   0.0002626   167.140547   0.0055563   0.0063791   167.2303318   0.0055439   
02523   167.8168044   0.0055446   0.0063703   167.825711   0.0055319   83.7830077   55.8553385   0.0002633   167.580293   0.0055563   0.0063813   167.6686772   0.0055439   
02524   168.2373814   0.0055447   0.0063726   168.248131   0.005532   83.9937362   55.9958241   0.0002639   167.8602161   0.0055571   0.0063835   167.9535764   0.0055447   
02525   168.6705579   0.0055447   0.0063748   168.6828003   0.005532   84.210835   56.1405567   0.0002646   168.2965122   0.0055571   0.0063856   168.3921162   0.0055447   
02526   169.1041315   0.0055447   0.0063769   169.117882   0.0055321   84.4281574   56.2854383   0.0002653   168.7329433   0.0055571   0.0063878   168.8301528   0.0055447   
02527   169.4289425   0.0055454   0.0063793   169.4493421   0.0055328   84.5941364   56.3960909   0.0002658   168.964997   0.0055581   0.0063901   169.0822684   0.0055457   
02528   169.7158884   0.0055464   0.0063817   169.7407091   0.0055337   84.7398884   56.4932589   0.0002663   169.4353455   0.0055581   0.0063925   169.5661224   0.0055457   
02529   170.1353639   0.0055465   0.0063839   170.1617196   0.0055338   84.9500488   56.6333659   0.0002669   169.8760338   0.0055581   0.0063947   170.0091527   0.0055457   
02530   170.3853885   0.0055477   0.0063864   170.4144636   0.005535   85.0758155   56.7172103   0.0002673   170.2621054   0.0055587   0.0063971   170.3819714   0.0055462   
02531   170.0119905   0.005553   0.0063898   170.0455149   0.0055403   84.8921501   56.5947667   0.0002667   170.8412569   0.0055594   0.0064007   170.9292791   0.0055469   
02532   170.3929736   0.0055534   0.0063921   170.4288429   0.0055407   85.0834555   56.7223037   0.0002673   171.3083604   0.0055594   0.0064031   171.4081274   0.0055469   
02533   170.8273907   0.0055534   0.0063943   170.8646891   0.0055407   85.3011004   56.8674003   0.000268   171.7441159   0.0055594   0.0064052   171.8466499   0.0055469   
02534   171.1959343   0.0055538   0.0063965   171.2345362   0.0055411   85.4859302   56.9906201   0.0002686   172.1879122   0.0055595   0.0064076   172.2673391   0.0055471   
02535   171.582165   0.0055541   0.0063988   171.6220897   0.0055414   85.6792622   57.1195081   0.0002692   172.6344019   0.0055595   0.0064098   172.7106838   0.0055471   
02536   171.7292289   0.0055558   0.0064012   171.7713111   0.0055431   85.7528862   57.1685908   0.0002694   172.9836948   0.0055603   0.0064123   173.0475238   0.0055478   
02537   171.9858157   0.0055569   0.0064036   172.0293864   0.0055442   85.8820557   57.2547038   0.0002698   173.3063221   0.0055611   0.0064147   173.3821808   0.0055486   
02538   167.1359134   0.0055915   0.0064137   167.1405958   0.0055788   83.4431536   55.6287691   0.0002622   168.2642254   0.0055967   0.0064248   168.3332218   0.0055841   
02539   167.5728699   0.0055915   0.0064159   167.5789802   0.0055788   83.6620779   55.7747186   0.0002629   168.6995085   0.0055967   0.006427   168.770526   0.0055841   
02540   168.0010476   0.0055916   0.0064181   168.0090051   0.0055788   83.8767356   55.9178237   0.0002636   169.1384445   0.0055967   0.0064292   169.2089209   0.0055841   
02541   168.4202032   0.0055917   0.0064203   168.4301189   0.0055789   84.0869788   56.0579859   0.0002642   169.5790723   0.0055967   0.0064314   169.6516062   0.0055841   
02542   168.8527895   0.0055917   0.0064225   168.8642381   0.0055789   84.3038571   56.2025714   0.0002649   170.0158165   0.0055967   0.0064336   170.0896629   0.0055841   
02543   169.2862233   0.0055917   0.0064247   169.2991934   0.005579   84.521003   56.3473353   0.0002656   170.4522301   0.0055967   0.0064358   170.528   0.0055841   
02544   169.6605613   0.0055921   0.006427   169.6773749   0.0055794   84.7099646   56.4733097   0.0002662   170.9063045   0.0055967   0.0064381   170.9833641   0.0055841   
02545   170.0830325   0.0055922   0.0064292   170.1015488   0.0055795   84.9217795   56.6145196   0.0002668   171.3454664   0.0055967   0.0064403   171.4257676   0.0055841   
02546   170.5149262   0.0055923   0.0064314   170.5349554   0.0055795   85.1381972   56.7587981   0.0002675   171.7823205   0.0055967   0.0064425   171.8645875   0.0055841   
02547   170.9380732   0.0055924   0.0064336   170.9599479   0.0055796   85.3501439   56.9000959   0.0002682   172.2213861   0.0055967   0.0064447   172.3060229   0.0055841   
02548   171.3739321   0.0055924   0.0064358   171.3972279   0.0055796   85.5684933   57.0456622   0.0002689   172.6570496   0.0055967   0.0064469   172.7436693   0.0055841   
02549   171.7669676   0.0055926   0.0064381   171.7923448   0.0055799   85.7656322   57.1770881   0.0002695   172.8521408   0.0055979   0.0064491   172.9511179   0.0055853   
02550   172.1861779   0.0055928   0.0064403   172.2130837   0.00558   85.9757829   57.3171886   0.0002701   173.2907759   0.0055979   0.0064513   173.390525   0.0055853   
02551   172.4481046   0.0055938   0.0064427   172.4789816   0.005581   86.108466   57.405644   0.0002705   173.6085854   0.0055988   0.0064539   173.7257973   0.0055863   
02552   172.847303   0.005594   0.0064448   172.8801979   0.0055812   86.3088251   57.5392167   0.0002712   173.8139744   0.0055999   0.006456   173.9458714   0.0055873   
02553   161.207887   0.0056717   0.0064641   161.2015686   0.0056588   80.4760965   53.650731   0.000253   162.0843909   0.0056796   0.0064769   162.2005539   0.0056669   
02554   161.6378412   0.0056717   0.0064663   161.6336463   0.0056588   80.6919692   53.7946461   0.0002537   162.5196941   0.0056796   0.006479   162.6386285   0.0056669   
02555   162.0747658   0.0056717   0.0064685   162.0720307   0.0056588   80.9108931   53.9405954   0.0002544   162.9549524   0.0056796   0.0064812   163.0759324   0.0056669   
02556   162.4975071   0.0056718   0.0064707   162.4965509   0.0056589   81.1226964   54.0817976   0.000255   163.3387216   0.0056799   0.0064834   163.4512157   0.0056672   
02557   162.9344397   0.0056718   0.0064729   162.9349352   0.0056589   81.3416203   54.2277469   0.0002557   163.7739904   0.0056799   0.0064856   163.8885196   0.0056672   
02558   163.3696045   0.0056718   0.0064751   163.3715998   0.0056589   81.5596492   54.3730995   0.0002564   164.209629   0.0056799   0.0064878   164.3268392   0.0056672   
02559   163.8065437   0.0056718   0.0064773   163.8099842   0.0056589   81.7785734   54.5190489   0.0002571   164.6449043   0.0056799   0.00649   164.7641433   0.0056672   
02560   164.2434862   0.0056718   0.0064795   164.2483685   0.0056589   81.9974973   54.6649982   0.0002578   165.0801827   0.0056799   0.0064922   165.2014474   0.0056672   
02561   164.6490373   0.005672   0.0064817   164.6567949   0.0056591   82.2012975   54.800865   0.0002584   165.5203997   0.0056799   0.0064944   165.646985   0.0056672   
02562   165.0797839   0.005672   0.0064839   165.0892641   0.0056592   82.417225   54.9448166   0.0002591   165.9574848   0.0056799   0.0064966   166.0861959   0.0056672   
02563   165.5167398   0.005672   0.0064861   165.5276484   0.0056592   82.636149   55.090766   0.0002598   166.3927727   0.0056799   0.0064987   166.5235003   0.0056672   
02564   165.9536988   0.005672   0.0064883   165.9660327   0.0056592   82.8550729   55.2367152   0.0002604   166.828064   0.0056799   0.0065009   166.9608043   0.0056672   
02565   166.3884676   0.0056721   0.0064905   166.4023285   0.0056592   83.0729639   55.3819759   0.0002611   167.2634298   0.0056799   0.0065031   167.3994412   0.0056672   
02566   166.7738015   0.0056724   0.0064927   166.7923045   0.0056595   83.2673129   55.5115419   0.0002617   167.7015488   0.0056799   0.0065053   167.8445314   0.0056672   
02567   167.1950331   0.0056725   0.0064949   167.2151456   0.0056596   83.4783486   55.6522324   0.0002624   168.1283357   0.00568   0.0065075   168.2564844   0.0056673   
02568   167.6313329   0.0056725   0.0064971   167.6528737   0.0056596   83.6969657   55.7979771   0.0002631   168.5639118   0.00568   0.0065097   168.6939503   0.0056673   
02569   168.0600636   0.0056725   0.0064993   168.0833605   0.0056597   83.9121269   55.9414179   0.0002637   169.0009993   0.00568   0.0065119   169.1332186   0.0056673   
02570   168.4970476   0.0056725   0.0065015   168.5217448   0.0056597   84.1310508   56.0873672   0.0002644   169.436315   0.00568   0.0065141   169.5705226   0.0056673   
02571   168.902326   0.0056727   0.0065037   168.9292762   0.0056598   84.3341487   56.2227658   0.0002651   169.8749885   0.00568   0.0065163   170.0123775   0.0056673   
02572   169.3269801   0.0056728   0.0065059   169.3556627   0.0056599   84.5470469   56.3646979   0.0002657   170.3154625   0.00568   0.0065185   170.4533012   0.0056673   
02573   169.7562681   0.0056728   0.0065081   169.7856396   0.0056599   84.7615653   56.5077102   0.0002664   170.7493371   0.00568   0.0065207   170.8879363   0.0056673   
02574   170.1932658   0.0056728   0.0065103   170.2240239   0.0056599   84.9804897   56.6536598   0.0002671   171.184664   0.00568   0.0065229   171.3252405   0.0056673   
02575   170.6225012   0.0056728   0.0065125   170.6551106   0.00566   85.1959341   56.7972894   0.0002678   171.6187299   0.00568   0.006525   171.7613657   0.0056673   
02576   171.0266505   0.005673   0.0065147   171.0612614   0.0056601   85.3987054   56.9324702   0.0002684   172.05857   0.00568   0.0065272   172.2061754   0.0056673   
02577   171.452622   0.0056731   0.0065169   171.4889009   0.0056602   85.6123056   57.0748704   0.0002691   172.4956823   0.00568   0.0065294   172.6454706   0.0056673   
02578   171.8469612   0.0056733   0.0065191   171.8871191   0.0056604   85.8110512   57.2073675   0.0002697   172.8699668   0.0056803   0.0065317   173.0294714   0.0056676   
02579   172.022194   0.005675   0.0065217   172.0707508   0.0056621   85.9030432   57.2686954   0.00027   173.3898211   0.0056803   0.0065343   173.5511338   0.0056677   
02580   172.4327173   0.0056752   0.0065239   172.483475   0.0056623   86.1091348   57.4060899   0.0002706   173.8419161   0.0056803   0.0065366   173.998557   0.0056677   
02581   172.5967342   0.0056763   0.0065259   172.6540536   0.0056634   86.1947959   57.4631973   0.0002709   173.7092265   0.0056836   0.0065392   173.8689244   0.0056709   
02582   172.9425836   0.0056769   0.0065282   173.0019212   0.005664   86.3683578   57.5789052   0.0002714   174.102061   0.005684   0.0065415   174.2609453   0.0056713   
02583   173.2516016   0.0056777   0.0065305   173.3125845   0.0056648   86.5230711   57.6820474   0.0002719   174.260744   0.0056855   0.0065439   174.4267639   0.0056728   
02584   173.5611835   0.005678   0.0065324   173.6259416   0.0056651   86.6797355   57.7864903   0.0002724   174.5962261   0.0056857   0.0065457   174.7621111   0.005673   
02585   173.7916802   0.0056793   0.0065348   173.8580527   0.0056664   86.7957164   57.8638109   0.0002728   174.5045747   0.0056885   0.0065481   174.7085317   0.0056758   
02586   169.0397983   0.005681   0.0065129   169.1324203   0.0056681   84.4370593   56.2913729   0.0002654   169.8474039   0.0056885   0.0065249   170.0864791   0.0056758   
02587   169.4768393   0.005681   0.0065151   169.5708046   0.0056681   84.6559832   56.4373222   0.0002661   170.2827854   0.0056885   0.0065271   170.5237831   0.0056758   
02588   169.882996   0.005681   0.0065171   169.9771273   0.0056681   84.8590398   56.5726932   0.0002667   170.6926026   0.0056885   0.0065291   170.932844   0.0056758   
02589   170.3183205   0.005681   0.0065193   170.4138472   0.0056681   85.0771222   56.7180815   0.0002674   171.1258953   0.0056885   0.0065313   171.3681683   0.0056758   
02590   170.754305   0.005681   0.0065215   170.8512024   0.0056681   85.2955309   56.8636873   0.0002681   171.5599727   0.0056885   0.0065335   171.8042265   0.0056758   
02591   171.1851888   0.005681   0.0065236   171.2826432   0.0056681   85.5109539   57.0073026   0.0002687   171.9917384   0.0056885   0.0065356   172.2369562   0.0056758   
02592   171.6172554   0.005681   0.0065258   171.7160828   0.0056681   85.7274324   57.1516216   0.0002694   172.4222191   0.0056885   0.0065378   172.669353   0.0056758   
02593   172.0328619   0.005681   0.0065279   172.1328446   0.0056681   85.9355761   57.2903841   0.0002701   172.8415421   0.0056885   0.0065399   173.0891718   0.0056758   
02594   172.3693768   0.005681   0.0065295   172.4643436   0.0056681   86.1015938   57.4010625   0.0002706   173.2075706   0.0056885   0.0065417   173.4461766   0.0056758   
02595   172.7966351   0.005681   0.0065317   172.8937172   0.0056682   86.3160458   57.5440305   0.0002713   173.6331005   0.0056885   0.0065438   173.8742457   0.0056758   
02596   173.1839097   0.0056811   0.0065337   173.2812586   0.0056682   86.5093991   57.6729327   0.0002719   174.0368578   0.0056885   0.0065459   174.2761931   0.0056758   
02597   173.5569431   0.0056813   0.0065358   173.6543153   0.0056684   86.6954661   57.7969774   0.0002725   174.4569054   0.0056885   0.006548   174.6964311   0.0056758   
02598   173.7775442   0.0056826   0.0065382   173.8761632   0.0056697   86.8064771   57.8709847   0.0002728   174.8594167   0.005689   0.0065505   175.0915358   0.0056763   
02599   174.0084104   0.005684   0.0065407   174.1026922   0.0056711   86.9198978   57.9465985   0.0002732   174.1637411   0.0056951   0.0065532   174.4376892   0.0056825   
02600   174.4398199   0.005684   0.0065429   174.535515   0.0056711   87.1360978   58.0907319   0.0002738   174.6007563   0.0056951   0.0065554   174.8768147   0.0056825   
02601   174.6835915   0.0056852   0.0065453   174.7808297   0.0056723   87.2583202   58.1722135   0.0002742   174.9792302   0.0056957   0.0065579   175.2415803   0.005683   
02602   175.0404524   0.0056854   0.0065473   175.1399429   0.0056725   87.4378773   58.2919182   0.0002748   175.2869213   0.0056961   0.0065598   175.5609977   0.0056834   
02603   175.244295   0.005686   0.0065489   175.349054   0.0056731   87.5411547   58.3607698   0.0002751   175.5427889   0.0056963   0.0065613   175.8265944   0.0056836   
02604   175.5025658   0.0056869   0.0065512   175.6097865   0.005674   87.671411   58.4476074   0.0002755   175.7446004   0.0056975   0.0065636   176.0434252   0.0056848   
02605   169.1664366   0.0057315   0.0065637   169.2255231   0.0057185   84.4824992   56.3216661   0.0002655   169.535132   0.0057415   0.0065762   169.8057817   0.0057287   
02606   169.580386   0.0057316   0.0065659   169.6420876   0.0057186   84.690485   56.4603234   0.0002662   169.9770424   0.0057415   0.0065785   170.2499677   0.0057287   
02607   170.0173763   0.0057316   0.0065681   170.080472   0.0057186   84.909409   56.6062726   0.0002669   170.4123637   0.0057415   0.0065806   170.6872718   0.0057287   
02608   170.4456073   0.0057317   0.0065703   170.5104477   0.0057187   85.1241742   56.7494494   0.0002675   170.8499785   0.0057415   0.0065828   171.1269723   0.0057287   
02609   170.8816868   0.0057317   0.0065725   170.9479618   0.0057187   85.3426768   56.8951179   0.0002682   171.2854828   0.0057415   0.006585   171.5646762   0.0057287   
02610   171.3127435   0.0057317   0.0065747   171.3805674   0.0057187   85.5587474   57.0391649   0.0002689   171.7223786   0.0057415   0.0065872   172.0031688   0.0057287   
02611   171.7354888   0.0057318   0.0065769   171.8049505   0.0057188   85.7705885   57.1803923   0.0002696   172.1620022   0.0057415   0.0065894   172.444742   0.0057287   
02612   172.1640778   0.0057319   0.0065791   172.2351453   0.0057189   85.985376   57.323584   0.0002702   172.5998866   0.0057415   0.0065916   172.8845469   0.0057287   
02613   172.5996857   0.0057319   0.0065813   172.6721955   0.0057189   86.2036426   57.469095   0.0002709   173.0342714   0.0057415   0.0065938   173.3182761   0.0057287   
02614   173.0316751   0.0057319   0.0065835   173.1057403   0.0057189   86.4201766   57.6134511   0.0002716   173.3984587   0.0057419   0.006596   173.6940521   0.005729   
02615   173.4636605   0.0057319   0.0065857   173.5391834   0.0057189   86.6367101   57.7578067   0.0002723   173.8355196   0.0057419   0.0065982   174.1327136   0.005729   
02616   173.8894316   0.005732   0.0065879   173.9665794   0.005719   86.8501087   57.9000725   0.0002729   174.2740783   0.0057419   0.0066004   174.5733991   0.005729   
02617   174.317657   0.0057321   0.0065901   174.3963473   0.0057191   87.0647334   58.0431556   0.0002736   174.7101767   0.0057419   0.0066026   175.0061971   0.0057291   
02618   174.742517   0.0057321   0.0065923   174.8225429   0.0057191   87.2776936   58.1851291   0.0002743   175.0966619   0.0057421   0.0066048   175.3926091   0.0057293   
02619   165.923822   0.0057323   0.0065483   165.9945584   0.0057192   82.858507   55.2390047   0.0002617   166.1917484   0.0057421   0.0065602   166.4906248   0.0057293   
02620   166.3589966   0.0057323   0.0065505   166.4311689   0.0057192   83.0763148   55.3842098   0.0002624   166.6251555   0.0057421   0.0065624   166.9260892   0.0057293   
02621   166.7952261   0.0057323   0.0065527   166.8687937   0.0057192   83.2948702   55.5299135   0.0002631   167.0597737   0.0057421   0.0065646   167.3626759   0.0057293   
02622   167.2312228   0.0057323   0.0065548   167.3062364   0.0057192   83.5133504   55.6755669   0.0002638   167.4935635   0.0057421   0.0065667   167.7985947   0.0057293   
02623   167.6243084   0.0057323   0.0065568   167.6980784   0.0057192   83.7092871   55.8061914   0.0002644   167.8933292   0.0057421   0.0065687   168.1955285   0.0057293   
02624   168.0605789   0.0057323   0.006559   168.1357802   0.0057192   83.9278684   55.9519123   0.0002651   168.3275587   0.0057421   0.0065709   168.6318501   0.0057293   
02625   168.4968922   0.0057323   0.0065612   168.5735156   0.0057192   84.1464841   56.097656   0.0002658   168.7618504   0.0057421   0.0065731   169.0682163   0.0057293   
02626   168.9018016   0.0057323   0.0065632   168.9795972   0.0057192   84.3450133   56.2300089   0.0002664   169.1655251   0.0057421   0.0065751   169.4736924   0.0057293   
02627   169.3387997   0.0057323   0.0065654   169.4179816   0.0057192   84.5639372   56.3759581   0.0002671   169.6008516   0.0057421   0.0065773   169.9109966   0.0057293   
02628   169.76318   0.0057323   0.0065675   169.8439911   0.0057192   84.7764651   56.5176434   0.0002678   170.0245052   0.0057421   0.0065794   170.3365247   0.0057293   
02629   170.1974226   0.0057323   0.0065697   170.2796535   0.0057192   84.9939926   56.6626617   0.0002685   170.4569619   0.0057421   0.0065816   170.7710213   0.0057293   
02630   170.6297238   0.0057323   0.0065719   170.7133801   0.0057192   85.2100358   56.8066905   0.0002691   170.8874792   0.0057421   0.0065837   171.2036015   0.0057293   
02631   171.0515457   0.0057323   0.006574   171.1366076   0.0057193   85.4212061   56.9474707   0.0002698   171.3086802   0.0057421   0.0065858   171.6267654   0.0057293   
02632   171.4866211   0.0057323   0.0065762   171.5729874   0.0057193   85.6391537   57.0927691   0.0002705   171.7423674   0.0057421   0.006588   172.0622746   0.0057293   
02633   171.9146625   0.0057323   0.0065783   172.002595   0.0057193   85.8538459   57.2358973   0.0002712   172.1701529   0.0057421   0.0065902   172.4921535   0.0057293   
02634   172.3217848   0.0057323   0.0065804   172.4094356   0.0057193   86.0568684   57.3712456   0.0002718   172.5841539   0.0057421   0.0065922   172.9050415   0.0057293   
02635   172.7545268   0.0057323   0.0065825   172.8439733   0.0057193   86.273883   57.515922   0.0002725   173.0153154   0.0057421   0.0065944   173.3383468   0.0057293   
02636   173.1626954   0.0057324   0.0065846   173.253896   0.0057193   86.478485   57.6523233   0.0002731   173.4320427   0.0057421   0.0065965   173.7571911   0.0057293   
02637   173.5457548   0.0057326   0.0065868   173.6391974   0.0057196   86.6711721   57.7807814   0.0002737   173.8583279   0.0057421   0.0065986   174.1858951   0.0057293   
02638   173.962523   0.0057327   0.006589   174.0577466   0.0057197   86.880121   57.9200807   0.0002744   174.2992388   0.0057421   0.0066008   174.6295992   0.0057293   
02639   174.3496251   0.005733   0.0065912   174.4462578   0.00572   87.0740033   58.0493355   0.000275   174.745356   0.0057421   0.0066031   175.0769259   0.0057293   
02640   174.6025662   0.0057342   0.0065937   174.7006086   0.0057212   87.2012407   58.1341604   0.0002754   175.2009351   0.0057423   0.0066055   175.5245185   0.0057295   
02641   175.019624   0.0057343   0.0065959   175.1190389   0.0057213   87.4100913   58.2733942   0.0002761   175.4003912   0.0057435   0.0066077   175.7426359   0.0057307   
02642   175.2972152   0.0057353   0.0065983   175.4022275   0.0057223   87.5519012   58.3679341   0.0002765   175.354366   0.005746   0.0066101   175.7319938   0.0057332   
02643   175.6563879   0.0057358   0.0066006   175.7630575   0.0057227   87.7317407   58.4878271   0.0002771   175.7823029   0.0057461   0.0066123   176.1615232   0.0057333   
02644   166.8783086   0.005796   0.0066168   166.9576462   0.0057829   83.3302616   55.5535077   0.0002633   166.8291679   0.0058074   0.0066287   167.1799089   0.0057945   
02645   167.3134541   0.005796   0.006619   167.3942265   0.0057829   83.5482576   55.6988384   0.000264   167.2650374   0.0058074   0.0066309   167.617845   0.0057945   
02646   167.7504595   0.005796   0.0066212   167.8326109   0.0057829   83.7671815   55.8447877   0.0002647   167.7003661   0.0058074   0.0066331   168.055149   0.0057945   
02647   168.1874677   0.005796   0.0066234   168.2709953   0.0057829   83.9861056   55.9907371   0.0002654   168.1356973   0.0058074   0.0066352   168.4924532   0.0057945   
02648   168.6223225   0.005796   0.0066256   168.7073197   0.005783   84.2039537   56.1359692   0.000266   168.5716426   0.0058074   0.0066374   168.9303802   0.0057945   
02649   169.0516249   0.0057961   0.0066278   169.1381493   0.005783   84.4191711   56.2794474   0.0002667   169.0093153   0.0058074   0.0066396   169.3705682   0.0057945   
02650   169.4886421   0.0057961   0.00663   169.5765337   0.005783   84.6380948   56.4253965   0.0002674   169.444655   0.0058074   0.0066418   169.8078725   0.0057945   
02651   169.9201964   0.0057961   0.0066321   170.0097494   0.005783   84.8545758   56.5697172   0.0002681   169.8814383   0.0058074   0.006644   170.2468815   0.0057945   
02652   170.3572198   0.0057961   0.0066343   170.4481337   0.005783   85.0734999   56.7156666   0.0002688   170.3167834   0.0058074   0.0066462   170.6841857   0.0057945   
02653   170.7932589   0.0057961   0.0066365   170.8855832   0.005783   85.2919855   56.8613237   0.0002694   170.7522985   0.0058074   0.0066484   171.1217055   0.0057945   
02654   171.2299083   0.0057961   0.0066387   171.3236161   0.005783   85.5107452   57.0071635   0.0002701   171.1876542   0.0058074   0.0066505   171.5590483   0.0057945   
02655   171.6647077   0.0057961   0.0066409   171.7598343   0.0057831   85.7285363   57.1523575   0.0002708   171.6235754   0.0058074   0.0066527   171.9970391   0.0057945   
02656   172.101742   0.0057961   0.0066431   172.1982186   0.0057831   85.94746   57.2983067   0.0002715   172.0589303   0.0058074   0.0066549   172.4343434   0.0057945   
02657   172.536748   0.0057962   0.0066453   172.6346407   0.0057831   86.1654497   57.4436332   0.0002722   172.4946812   0.0058074   0.0066571   172.8721341   0.0057945   
02658   172.9707084   0.0057962   0.0066475   173.070038   0.0057831   86.3829035   57.5886023   0.0002729   172.9306657   0.0058074   0.0066593   173.3101832   0.0057945   
02659   173.4068811   0.0057962   0.0066497   173.507571   0.0057831   86.6014076   57.7342717   0.0002735   173.36629   0.0058074   0.0066615   173.74772   0.0057945   
02660   173.7506848   0.0057968   0.006652   173.8545028   0.0057837   86.7749205   57.849947   0.0002741   173.8273517   0.0058074   0.0066638   174.2136131   0.0057945   
02661   174.1877362   0.0057968   0.0066542   174.2928872   0.0057837   86.9938445   57.9958963   0.0002748   174.2627206   0.0058074   0.006666   174.6509171   0.0057945   
02662   174.6218778   0.0057968   0.0066564   174.7283817   0.0057837   87.2113976   58.1409317   0.0002754   174.6989594   0.0058074   0.0066681   175.089268   0.0057945   
02663   175.0562556   0.0057968   0.0066586   175.1640794   0.0057837   87.4290764   58.2860509   0.0002761   175.1325217   0.0058074   0.0066703   175.5245235   0.0057945   
02664   175.4892739   0.0057968   0.0066608   175.5985509   0.0057837   87.6460747   58.4307165   0.0002768   175.568137   0.0058074   0.0066725   175.9621565   0.0057945   
02665   175.8428295   0.0057972   0.0066629   175.951208   0.0057841   87.8222784   58.5481856   0.0002774   175.9894798   0.0058074   0.0066746   176.3868163   0.0057945   
02666   176.0939205   0.0057984   0.0066653   176.2035271   0.0057853   87.9483167   58.6322111   0.0002778   176.1965605   0.0058088   0.0066771   176.6034705   0.0057959   
02667   167.3703446   0.0058584   0.0066815   167.4375468   0.0058453   83.5694425   55.7129617   0.000264   167.3642756   0.0058695   0.0066933   167.6931552   0.0058566   
02668   167.8029703   0.0058585   0.0066837   167.8717701   0.0058453   83.7862683   55.8575122   0.0002647   167.8008833   0.0058695   0.0066955   168.1318102   0.0058566   
02669   168.2379358   0.0058585   0.0066859   168.3082489   0.0058453   84.0042335   56.0028223   0.0002654   168.2367666   0.0058695   0.0066977   168.5697015   0.0058566   
02670   168.6723989   0.0058585   0.0066881   168.7441315   0.0058453   84.2218891   56.1479261   0.0002661   168.6729138   0.0058695   0.0066999   169.0078919   0.0058566   
02671   169.0898823   0.0058586   0.0066903   169.1633039   0.0058455   84.4312352   56.2874901   0.0002667   169.1239892   0.0058695   0.0067021   169.43982   0.0058566   
02672   169.5190674   0.0058587   0.0066925   169.5941211   0.0058455   84.6463943   56.4309296   0.0002674   169.5615851   0.0058695   0.0067043   169.8795239   0.0058566   
02673   169.9528994   0.0058587   0.0066947   170.0294056   0.0058455   84.863775   56.57585   0.0002681   169.9977128   0.0058695   0.0067065   170.3179765   0.0058566   
02674   170.3258289   0.0058591   0.006697   170.4055579   0.0058459   85.0516126   56.7010751   0.0002687   170.416605   0.0058697   0.0067088   170.7419242   0.0058567   
02675   170.7587456   0.0058591   0.0066992   170.8399488   0.005846   85.268567   56.8457113   0.0002694   170.8110591   0.0058699   0.006711   171.1410723   0.0058569   
02676   171.1957432   0.0058591   0.0067014   171.2783332   0.005846   85.4874908   56.9916605   0.0002701   171.2463644   0.0058699   0.0067131   171.5783764   0.0058569   
02677   171.6292738   0.0058591   0.0067036   171.7134119   0.005846   85.7047743   57.1365162   0.0002707   171.6448196   0.0058701   0.0067153   171.9774135   0.0058571   
02678   172.0613476   0.0058592   0.0067058   172.1469889   0.005846   85.9213102   57.2808735   0.0002714   172.0814206   0.0058701   0.0067175   172.416426   0.0058571   
02679   172.4726186   0.0058593   0.006708   172.5598831   0.0058462   86.1275282   57.4183522   0.0002721   172.5249357   0.0058701   0.0067197   172.8623326   0.0058571   
02680   172.800866   0.00586   0.0067104   172.8911393   0.0058469   86.2929553   57.5286368   0.0002726   172.5756283   0.0058721   0.0067221   172.9536015   0.0058591   
02681   173.2348986   0.0058601   0.0067126   173.3266696   0.0058469   86.510459   57.6736393   0.0002733   173.0117862   0.0058721   0.0067243   173.3918612   0.0058591   
02682   173.6675336   0.0058601   0.0067148   173.7607254   0.0058469   86.7272109   57.8181406   0.0002739   173.4484766   0.0058721   0.0067265   173.830483   0.0058591   
02683   174.0716491   0.0058603   0.006717   174.1667603   0.0058471   86.9300013   57.9533342   0.0002746   173.8940891   0.0058721   0.0067287   174.2780428   0.0058591   
02684   174.481273   0.0058605   0.0067192   174.5783404   0.0058473   87.1355639   58.0903759   0.0002752   174.3376805   0.0058721   0.0067309   174.7236721   0.0058591   
02685   174.7645755   0.0058615   0.0067216   174.8644379   0.0058483   87.2785638   58.1857092   0.0002757   174.8158957   0.0058721   0.0067333   175.2102655   0.0058591   
02686   175.1910411   0.0058615   0.0067238   175.292387   0.0058483   87.4923524   58.3282349   0.0002763   175.2450452   0.0058721   0.0067355   175.6406862   0.0058591   
02687   175.592349   0.0058617   0.006726   175.695646   0.0058485   87.693725   58.4624834   0.000277   175.690138   0.0058721   0.0067377   176.0872893   0.0058591   
02688   176.0185442   0.0058617   0.0067282   176.1237244   0.0058486   87.9075179   58.605012   0.0002776   176.1240607   0.0058721   0.0067399   176.5227662   0.0058591   
02689   176.4428571   0.0058618   0.0067304   176.549782   0.0058486   88.1203133   58.7468756   0.0002783   176.5580917   0.0058721   0.0067421   176.9588953   0.0058591   
02690   176.6327436   0.005863   0.0067326   176.7436041   0.0058499   88.2167456   58.8111638   0.0002786   176.8551341   0.0058728   0.0067443   177.2552039   0.0058599   
02691   177.041196   0.0058632   0.0067348   177.1539354   0.00585   88.4216717   58.9477811   0.0002792   177.2098119   0.0058732   0.0067465   177.6140928   0.0058602   
02692   166.0760667   0.0059374   0.0067541   166.1734329   0.0059242   82.9370124   55.2913416   0.0002621   165.9809758   0.0059491   0.0067661   166.4032578   0.0059361   
02693   166.5130635   0.0059374   0.0067562   166.6118172   0.0059242   83.1559363   55.4372909   0.0002628   166.4162912   0.0059491   0.0067683   166.8405621   0.0059361   
02694   166.947129   0.0059374   0.0067584   167.0473639   0.0059242   83.373443   55.5822954   0.0002634   166.7840676   0.0059494   0.0067705   167.2238768   0.0059364   
02695   167.3808175   0.0059374   0.0067606   167.4825532   0.0059242   83.5907679   55.7271786   0.0002641   167.2203887   0.0059494   0.0067727   167.662187   0.0059364   
02696   167.8178235   0.0059374   0.0067628   167.9209375   0.0059242   83.809692   55.873128   0.0002648   167.6557163   0.0059494   0.0067749   168.0994911   0.0059364   
02697   168.2524982   0.0059375   0.006765   168.357014   0.0059242   84.0274602   56.0183068   0.0002655   168.0928965   0.0059494   0.0067771   168.5359434   0.0059364   
02698   168.6895098   0.0059375   0.0067672   168.7953984   0.0059242   84.2463842   56.1642561   0.0002662   168.5282292   0.0059494   0.0067792   168.9732477   0.0059364   
02699   169.1223175   0.0059375   0.0067694   169.2297482   0.0059243   84.463294   56.3088626   0.0002668   168.9647454   0.0059494   0.0067814   169.4117987   0.0059364   
02700   169.5399021   0.0059376   0.0067716   169.6490907   0.0059244   84.6726962   56.4484641   0.0002675   169.407048   0.0059494   0.0067836   169.848152   0.0059364   
02701   169.9769232   0.0059376   0.0067738   170.087475   0.0059244   84.89162   56.5944133   0.0002682   169.8423902   0.0059494   0.0067858   170.2854563   0.0059364   
02702   170.3868964   0.0059378   0.006776   170.4994731   0.0059246   85.0973658   56.7315772   0.0002688   170.2861297   0.0059494   0.0067881   170.7308348   0.0059364   
02703   170.8204104   0.0059378   0.0067782   170.9344425   0.0059246   85.3145822   56.8763882   0.0002695   170.7225943   0.0059494   0.0067902   171.1689542   0.0059364   
02704   171.2452562   0.0059379   0.0067804   171.361059   0.0059247   85.527624   57.018416   0.0002702   171.1200392   0.0059496   0.0067924   171.5662717   0.0059366   
02705   171.682291   0.0059379   0.0067826   171.7994434   0.0059247   85.7465481   57.1643654   0.0002709   171.555396   0.0059496   0.0067946   172.0035757   0.0059366   
02706   172.1193284   0.0059379   0.0067848   172.2378277   0.0059247   85.965472   57.3103147   0.0002716   171.9907545   0.0059496   0.0067968   172.4408798   0.0059366   
02707   172.5555801   0.0059379   0.006787   172.6754352   0.0059247   86.1840049   57.4560032   0.0002722   172.4263541   0.0059496   0.006799   172.8784324   0.0059366   
02708   172.9926226   0.0059379   0.0067892   173.1138194   0.0059247   86.402929   57.6019527   0.0002729   172.8617179   0.0059496   0.0068012   173.3157365   0.0059366   
02709   173.4250746   0.0059379   0.0067914   173.5477484   0.0059247   86.6196215   57.7464143   0.0002736   173.2984231   0.0059496   0.0068034   173.7543273   0.0059366   
02710   173.8593456   0.0059379   0.0067936   173.9833488   0.0059247   86.8371414   57.8914276   0.0002743   173.7339997   0.0059496   0.0068055   174.191702   0.0059366   
02711   174.2891844   0.005938   0.0067958   174.414662   0.0059248   87.0525232   58.0350155   0.000275   174.1725165   0.0059496   0.0068077   174.6302348   0.0059366   
02712   174.7218745   0.005938   0.006798   174.8487843   0.0059248   87.2693325   58.179555   0.0002756   174.6085808   0.0059496   0.0068099   175.0679811   0.0059366   
02713   175.1385174   0.0059381   0.0068002   175.2669958   0.0059249   87.4781716   58.3187811   0.0002763   174.9700578   0.00595   0.0068121   175.4341966   0.005937   
02714   175.5713598   0.0059381   0.0068024   175.7012293   0.0059249   87.6950418   58.4633612   0.000277   175.405863   0.00595   0.0068143   175.87235   0.005937   
02715   176.0029606   0.0059381   0.0068045   176.1338847   0.0059249   87.9110505   58.607367   0.0002776   175.8390923   0.00595   0.0068165   176.3069647   0.005937   
02716   176.3884366   0.0059385   0.0068068   176.5222307   0.0059252   88.1049513   58.7366342   0.0002782   176.2660928   0.0059501   0.0068187   176.7298276   0.0059371   
02717   168.7142928   0.0059909   0.0068207   168.8188925   0.0059776   84.2565573   56.1710382   0.0002661   168.7767165   0.0060013   0.0068325   169.3077046   0.0059882   
02718   169.1494208   0.0059909   0.0068229   169.2555148   0.0059776   84.4746006   56.3164004   0.0002668   169.2126361   0.0060013   0.0068347   169.7455416   0.0059882   
02719   169.5864384   0.0059909   0.0068251   169.6938992   0.0059776   84.6935246   56.4623497   0.0002675   169.6479733   0.0060013   0.0068369   170.1828457   0.0059882   
02720   170.0173433   0.0059909   0.0068273   170.1263333   0.0059777   84.909477   56.606318   0.0002682   170.0855505   0.0060013   0.0068391   170.6215494   0.0059882   
02721   170.4472014   0.005991   0.0068295   170.5577692   0.0059777   85.1249038   56.7499359   0.0002689   170.522951   0.0060013   0.0068413   171.0609813   0.0059882   
02722   170.884228   0.005991   0.0068317   170.9961535   0.0059777   85.3438279   56.8958853   0.0002695   170.9582955   0.0060013   0.0068434   171.4982854   0.0059882   
02723   171.3203123   0.005991   0.0068339   171.4336174   0.0059777   85.5622922   57.0415281   0.0002702   171.3940386   0.0060013   0.0068456   171.9357505   0.0059882   
02724   171.7562446   0.005991   0.006836   171.8709617   0.0059777   85.7806963   57.1871308   0.0002709   171.8297273   0.0060013   0.0068478   172.3733696   0.0059882   
02725   172.1887453   0.005991   0.0068382   172.3049208   0.0059777   85.9974093   57.3316062   0.0002716   172.2664774   0.0060013   0.00685   172.8120187   0.0059882   
02726   172.6257829   0.005991   0.0068404   172.7433051   0.0059777   86.2163333   57.4775555   0.0002723   172.7018317   0.0060013   0.0068522   173.2493224   0.0059882   
02727   173.0563019   0.0059911   0.0068426   173.1753646   0.0059778   86.4320956   57.6213971   0.000273   173.1393151   0.0060013   0.0068544   173.6885216   0.0059882   
02728   173.4924216   0.0059911   0.0068448   173.6128576   0.0059778   86.6505709   57.7670473   0.0002736   173.5749219   0.0060013   0.0068566   174.126117   0.0059882   
02729   173.9281742   0.0059911   0.006847   174.0500024   0.0059778   86.8688746   57.9125831   0.0002743   174.0106387   0.0060013   0.0068587   174.563809   0.0059882   
02730   174.3630536   0.0059911   0.0068492   174.4862447   0.0059778   87.08673   58.05782   0.000275   174.4466703   0.0060013   0.0068609   175.0017705   0.0059882   
02731   174.7959063   0.0059911   0.0068514   174.9205865   0.0059778   87.3036315   58.202421   0.0002757   174.882878   0.0060013   0.0068631   175.4406961   0.0059882   
02732   175.2303399   0.0059911   0.0068536   175.3563681   0.0059779   87.5212621   58.3475081   0.0002764   175.3182263   0.0060013   0.0068653   175.8779074   0.0059882   
02733   175.6586189   0.0059912   0.0068558   175.7861467   0.0059779   87.7358695   58.4905797   0.000277   175.7518165   0.0060013   0.0068675   176.3145189   0.0059882   
02734   176.0909288   0.0059912   0.006858   176.2200342   0.0059779   87.9524981   58.6349987   0.0002777   176.1876347   0.0060013   0.0068697   176.7526864   0.0059882   
02735   176.4104149   0.0059914   0.0068598   176.5410134   0.0059781   88.1129099   58.74194   0.0002782   176.4052258   0.0060021   0.0068715   176.9800708   0.005989   
02736   176.801582   0.0059917   0.006862   176.9347864   0.0059784   88.3101866   58.8734578   0.0002788   176.8432807   0.0060021   0.0068737   177.421853   0.005989   
02737   172.0701641   0.0059959   0.0068425   172.1699995   0.0059826   85.9279522   57.2853014   0.0002715   172.2800269   0.0060022   0.006851   172.8354869   0.0059891   
02738   172.5072027   0.0059959   0.0068447   172.6083838   0.0059826   86.1468761   57.4312507   0.0002722   172.7153939   0.0060022   0.0068532   173.2727906   0.0059891   
02739   172.9434599   0.0059959   0.0068469   173.0460196   0.0059826   86.3653896   57.5769264   0.0002729   173.1496668   0.0060022   0.0068554   173.7090873   0.0059891   
02740   173.3795093   0.0059959   0.0068491   173.4832616   0.0059826   86.5837298   57.7224865   0.0002736   173.5844193   0.0060022   0.0068575   174.1456686   0.0059891   
02741   173.8043639   0.0059959   0.0068512   173.9095502   0.0059826   86.7962783   57.8641855   0.0002743   174.0084473   0.0060022   0.0068597   174.5714362   0.0059891   
02742   174.241022   0.0059959   0.0068534   174.3475347   0.0059826   87.0150146   58.0100097   0.0002749   174.4436153   0.0060022   0.0068619   175.0084924   0.0059891   
02743   174.6653787   0.0059959   0.0068555   174.7725757   0.0059826   87.2271011   58.1514007   0.0002756   174.8645013   0.0060022   0.006864   175.4310899   0.0059891   
02744   175.061758   0.0059959   0.0068575   175.1664723   0.0059826   87.424364   58.2829094   0.0002762   175.2717606   0.0060022   0.006866   175.8351464   0.0059891   
02745   175.4810667   0.0059959   0.0068596   175.5880408   0.0059827   87.6344232   58.4229488   0.0002769   175.6826099   0.0060022   0.0068681   176.2499656   0.0059891   
02746   175.9163982   0.0059959   0.0068618   176.0245398   0.0059827   87.8524437   58.5682958   0.0002776   176.1167124   0.0060022   0.0068702   176.6857488   0.0059891   
02747   176.343315   0.005996   0.0068639   176.4529338   0.0059827   88.0662661   58.7108441   0.0002782   176.5453752   0.0060022   0.0068724   177.1157496   0.0059891   
02748   176.7247375   0.0059963   0.0068662   176.836923   0.005983   88.2578914   58.8385942   0.0002788   176.9943278   0.0060022   0.0068746   177.5653289   0.0059891   
02749   177.0140831   0.0059972   0.0068686   177.1275023   0.0059839   88.4025513   58.9350342   0.0002793   177.2436961   0.0060034   0.006877   177.8105802   0.0059903   
02750   168.5836605   0.0060552   0.0068843   168.6716538   0.0060419   84.1786891   56.1191261   0.0002661   168.8018933   0.0060618   0.0068928   169.2463582   0.0060486   
02751   169.0095332   0.0060553   0.0068865   169.0991875   0.0060419   84.3922302   56.2614868   0.0002667   169.2401453   0.0060618   0.006895   169.6873146   0.0060486   
02752   169.4465591   0.0060553   0.0068887   169.5375718   0.0060419   84.6111541   56.4074361   0.0002674   169.6754851   0.0060618   0.0068972   170.1246188   0.0060486   
02753   169.8830296   0.0060553   0.0068909   169.9754213   0.0060419   84.8298023   56.5532015   0.0002681   170.110992   0.0060618   0.0068994   170.5620837   0.0060486   
02754   170.3164135   0.0060553   0.0068931   170.4103294   0.006042   85.0470024   56.6980016   0.0002688   170.5064318   0.006062   0.0069016   170.967086   0.0060488   
02755   170.75171   0.0060553   0.0068953   170.8470537   0.006042   85.265132   56.8434213   0.0002695   170.9422381   0.006062   0.0069038   171.4049806   0.0060488   
02756   171.1857255   0.0060553   0.0068975   171.282535   0.006042   85.4825558   56.9883705   0.0002702   171.3793573   0.006062   0.006906   171.8416022   0.0060488   
02757   171.6189054   0.0060554   0.0068996   171.7171836   0.006042   85.6996741   57.1331161   0.0002708   171.8155617   0.006062   0.0069081   172.2804204   0.0060488   
02758   172.0559482   0.0060554   0.0069018   172.1555679   0.006042   85.9185983   57.2790655   0.0002715   172.250918   0.006062   0.0069103   172.7177246   0.0060488   
02759   172.4929934   0.0060554   0.006904   172.5939523   0.006042   86.1375221   57.4250147   0.0002722   172.6862768   0.006062   0.0069125   173.1550287   0.0060488   
02760   172.9290088   0.0060554   0.0069062   173.0313551   0.006042   86.3559546   57.5706364   0.0002729   173.0739158   0.0060622   0.0069147   173.548871   0.006049   
02761   173.3618064   0.0060554   0.0069084   173.465587   0.0060421   86.5727449   57.7151632   0.0002736   173.5105582   0.0060622   0.0069169   173.9874277   0.006049   
02762   173.7826843   0.0060555   0.0069106   173.8881691   0.0060422   86.7837898   57.8558598   0.0002742   173.9525569   0.0060622   0.0069191   174.4240979   0.006049   
02763   174.2167204   0.0060555   0.0069128   174.3236494   0.0060422   87.0012808   58.0008539   0.0002749   174.3888021   0.0060622   0.0069213   174.8623126   0.006049   
02764   174.651345   0.0060555   0.006915   174.7596818   0.0060422   87.2190331   58.146022   0.0002756   174.7916963   0.0060624   0.0069235   175.2642812   0.0060492   
02765   175.0804634   0.0060556   0.0069172   175.19039   0.0060422   87.4339847   58.2893232   0.0002763   175.2280384   0.0060624   0.0069257   175.7049784   0.0060492   
02766   175.5062223   0.0060557   0.0069194   175.6177614   0.0060423   87.6473587   58.4315724   0.0002769   175.6668469   0.0060624   0.0069279   176.1456588   0.0060492   
02767   175.9405605   0.0060557   0.0069216   176.0534548   0.0060423   87.8649424   58.5766283   0.0002776   176.1029674   0.0060624   0.00693   176.5838863   0.0060492   
02768   176.3756004   0.0060557   0.0069238   176.4898522   0.0060423   88.0828821   58.7219214   0.0002783   176.5389622   0.0060624   0.0069322   177.0218066   0.0060492   
02769   176.8013152   0.0060558   0.006926   176.9171886   0.0060424   88.2964244   58.8642829   0.000279   176.9767318   0.0060624   0.0069344   177.4618258   0.0060492   
02770   177.2289346   0.0060558   0.0069282   177.3463933   0.0060425   88.5108253   59.0072169   0.0002796   177.4140435   0.0060624   0.0069366   177.9013214   0.0060492   
02771   177.6035836   0.0060561   0.0069304   177.7215642   0.0060428   88.6979012   59.1319342   0.0002802   177.794414   0.0060627   0.0069388   178.2585845   0.0060495   
02772   166.5228113   0.0061315   0.0069502   166.6031568   0.0061181   83.1441602   55.4294401   0.0002628   166.6510852   0.0061385   0.0069587   167.0954694   0.0061253   
02773   166.9598221   0.0061315   0.0069524   167.0415412   0.0061181   83.3630844   55.5753896   0.0002635   167.0864032   0.0061385   0.0069609   167.5327734   0.0061253   
02774   167.395923   0.0061315   0.0069546   167.4790468   0.0061181   83.5815777   55.7210518   0.0002642   167.5219794   0.0061385   0.0069631   167.9703703   0.0061253   
02775   167.831596   0.0061315   0.0069568   167.9161584   0.0061181   83.7998528   55.8665686   0.0002649   167.9576787   0.0061385   0.0069653   168.4080685   0.0061253   
02776   168.2583457   0.0061316   0.006959   168.3447073   0.0061182   84.0138622   56.0092415   0.0002656   168.3810044   0.0061386   0.0069675   168.8303177   0.0061254   
02777   168.6583351   0.0061318   0.0069612   168.7472844   0.0061184   84.2148041   56.1432028   0.0002662   168.74368   0.006139   0.0069697   169.1965235   0.0061258   
02778   169.0953641   0.0061318   0.0069634   169.1856687   0.0061184   84.4337285   56.2891523   0.0002669   169.179019   0.006139   0.0069719   169.6338274   0.0061258   
02779   169.5295534   0.0061318   0.0069656   169.6213029   0.0061184   84.6512711   56.4341808   0.0002676   169.6151689   0.006139   0.0069741   170.0719834   0.0061258   
02780   169.9665879   0.0061318   0.0069678   170.0596873   0.0061184   84.8701951   56.5801301   0.0002682   170.0505129   0.006139   0.0069763   170.5092875   0.0061258   
02781   170.3824604   0.0061319   0.00697   170.4773453   0.0061185   85.0787831   56.7191887   0.0002689   170.4919649   0.006139   0.0069785   170.9530898   0.0061258   
02782   170.815646   0.006132   0.0069722   170.9119374   0.0061186   85.2958477   56.8638985   0.0002696   170.9285549   0.006139   0.0069807   171.3914326   0.0061258   
02783   171.2521829   0.006132   0.0069744   171.3498281   0.0061186   85.5145297   57.0096864   0.0002703   171.3640522   0.006139   0.0069829   171.8288901   0.0061258   
02784   171.6882918   0.006132   0.0069766   171.7872989   0.0061186   85.7329856   57.1553237   0.0002709   171.7996954   0.006139   0.006985   172.2664726   0.0061258   
02785   172.1253406   0.006132   0.0069788   172.2256832   0.0061186   85.9519094   57.301273   0.0002716   172.2350523   0.006139   0.0069872   172.7037766   0.0061258   
02786   172.5605761   0.006132   0.0069809   172.6623119   0.0061186   86.1699449   57.44663   0.0002723   172.6707637   0.006139   0.0069894   173.141827   0.0061258   
02787   172.9976301   0.006132   0.0069831   173.1006962   0.0061186   86.3888689   57.5925793   0.000273   173.106126   0.006139   0.0069916   173.5791307   0.0061258   
02788   173.4335824   0.006132   0.0069853   173.5380001   0.0061186   86.6072483   57.7381655   0.0002737   173.5418169   0.006139   0.0069938   174.0167672   0.0061258   
02789   173.8699429   0.006132   0.0069875   173.9756494   0.0061186   86.8257993   57.8838662   0.0002744   173.9766091   0.006139   0.006996   174.4534299   0.0061258   
02790   174.3028961   0.006132   0.0069897   174.4101087   0.0061186   87.0427721   58.0285147   0.000275   174.4135096   0.006139   0.0069981   174.8912906   0.0061258   
02791   174.7399602   0.006132   0.0069919   174.848493   0.0061186   87.2616963   58.1744642   0.0002757   174.8488811   0.006139   0.0070003   175.3285946   0.0061258   
02792   175.1758883   0.006132   0.0069941   175.2857838   0.0061186   87.4800719   58.3200479   0.0002764   175.2843363   0.006139   0.0070025   175.7661546   0.0061258   
02793   175.6076465   0.006132   0.0069963   175.7187035   0.0061186   87.6962   58.4641334   0.0002771   175.7163649   0.006139   0.0070047   176.1997419   0.0061258   
02794   176.0438159   0.006132   0.0069984   176.1562047   0.0061186   87.9146944   58.6097963   0.0002778   176.1520118   0.006139   0.0070069   176.6373194   0.0061258   
02795   176.4630844   0.0061322   0.0070007   176.5770611   0.0061188   88.1248449   58.7498966   0.0002784   176.5922127   0.006139   0.0070091   177.0793545   0.0061258   
02796   176.8994255   0.0061322   0.0070028   177.014698   0.0061188   88.3433808   58.8955872   0.0002791   177.0269792   0.006139   0.0070112   177.5160003   0.0061258   
02797   169.6228709   0.0061566   0.0069906   169.6683668   0.0061431   84.6763496   56.4508998   0.0002676   169.2197893   0.0061654   0.0069983   169.6527626   0.006152   
02798   170.0523828   0.0061566   0.0069928   170.0991776   0.0061431   84.8915876   56.5943918   0.0002683   169.6455725   0.0061654   0.0070004   170.080603   0.006152   
02799   170.4752421   0.0061566   0.0069949   170.5234149   0.0061431   85.1034137   56.7356091   0.000269   170.0714272   0.0061654   0.0070025   170.5075532   0.006152   
02800   170.9083911   0.0061566   0.0069971   170.9580629   0.0061431   85.3204565   56.8803043   0.0002696   170.5005202   0.0061654   0.0070047   170.9390164   0.006152   
02801   171.3383474   0.0061566   0.0069993   171.3893391   0.0061431   85.5358317   57.0238878   0.0002703   170.9326958   0.0061654   0.0070068   171.3729967   0.006152   
02802   171.7722088   0.0061566   0.0070015   171.8249692   0.0061431   85.7533963   57.1689308   0.000271   171.3671027   0.0061654   0.007009   171.8092824   0.006152   
02803   172.1981615   0.0061566   0.0070036   172.2520158   0.0061431   85.9665414   57.3110276   0.0002717   171.7913575   0.0061654   0.0070111   172.2349413   0.006152   
02804   172.6347107   0.0061566   0.0070058   172.6896512   0.0061431   86.1850925   57.4567283   0.0002724   172.2264471   0.0061654   0.0070133   172.6719659   0.006152   
02805   173.0433644   0.0061568   0.007008   173.1009543   0.0061433   86.3907468   57.5938312   0.000273   172.6520649   0.0061655   0.0070156   173.0945084   0.0061521   
02806   173.4707917   0.0061568   0.0070101   173.5285573   0.0061433   86.604173   57.7361153   0.0002737   173.0820834   0.0061655   0.0070177   173.5247622   0.0061521   
02807   173.9036472   0.0061568   0.0070123   173.9629338   0.0061433   86.821066   57.8807107   0.0002743   173.5153845   0.0061655   0.0070199   173.9599649   0.0061521   
02808   174.3075032   0.0061568   0.0070144   174.3676593   0.0061433   87.0233689   58.0155793   0.000275   173.8106373   0.006166   0.007022   174.2719344   0.0061527   
02809   174.7267737   0.0061569   0.0070166   174.788803   0.0061434   87.2337793   58.1558529   0.0002756   174.2400375   0.006166   0.0070241   174.7041852   0.0061527   
02810   175.1628024   0.0061569   0.0070188   175.2259764   0.0061434   87.4521157   58.3014105   0.0002763   174.674804   0.006166   0.0070263   175.1407083   0.0061527   
02811   175.5699325   0.006157   0.0070208   175.6332715   0.0061435   87.6553346   58.4368898   0.000277   175.0868209   0.006166   0.0070284   175.5521446   0.0061527   
02812   175.9873588   0.006157   0.0070229   176.0513815   0.0061435   87.864163   58.5761087   0.0002776   175.5074553   0.006166   0.0070305   175.9735385   0.0061527   
02813   176.3486628   0.0061574   0.0070251   176.4186408   0.0061438   88.0471051   58.6980701   0.0002782   175.9087713   0.006166   0.0070325   176.3792519   0.0061527   
02814   176.7620247   0.0061574   0.0070272   176.8333444   0.0061439   88.2540457   58.8360304   0.0002788   176.3244529   0.006166   0.0070346   176.7973745   0.0061527   
02815   177.1521418   0.0061576   0.0070294   177.2262923   0.0061441   88.4502521   58.9668347   0.0002794   176.7594384   0.006166   0.0070367   177.2379075   0.0061527   
02816   177.56037   0.0061578   0.0070316   177.6363738   0.0061443   88.6549404   59.1032936   0.0002801   177.1909376   0.006166   0.0070389   177.6723217   0.0061527   
02817   177.9656429   0.0061579   0.0070338   178.0437565   0.0061444   88.8585322   59.2390215   0.0002807   177.6236502   0.006166   0.0070411   178.1074584   0.0061527   
02818   178.3445232   0.0061582   0.007036   178.4249957   0.0061447   89.0490101   59.3660067   0.0002813   178.0141251   0.0061663   0.0070433   178.4877463   0.0061529   
02819   178.6974927   0.0061587   0.0070383   178.7791085   0.0061452   89.2257213   59.4838142   0.0002819   178.3162517   0.0061671   0.0070455   178.7860891   0.0061537   
02820   179.0876313   0.0061589   0.0070404   179.1711515   0.0061454   89.421782   59.6145213   0.0002825   178.7145218   0.0061672   0.0070477   179.1891505   0.0061538   
02821   170.1002593   0.0062204   0.0070568   170.1567893   0.0062069   84.9194461   56.6129641   0.0002684   169.9719531   0.0062276   0.0070643   170.3927671   0.0062142   
02822   170.5292907   0.0062205   0.007059   170.5875654   0.0062069   85.1347106   56.7564738   0.0002691   170.409657   0.0062276   0.0070664   170.8323966   0.0062142   
02823   170.9394439   0.0062206   0.0070613   170.9999411   0.0062071   85.3403409   56.8935606   0.0002697   170.8528561   0.0062276   0.0070687   171.2770812   0.0062142   
02824   171.3764914   0.0062206   0.0070635   171.4383255   0.0062071   85.5592647   57.0395098   0.0002704   171.2882269   0.0062276   0.0070709   171.7143852   0.0062142   
02825   171.8073849   0.0062207   0.0070657   171.8707964   0.0062071   85.7753314   57.1835543   0.0002711   171.7250393   0.0062276   0.007073   172.1533608   0.0062142   
02826   172.2444381   0.0062207   0.0070678   172.3091807   0.0062071   85.9942553   57.3295035   0.0002718   172.1604163   0.0062276   0.0070752   172.5906645   0.0062142   
02827   172.6814937   0.0062207   0.00707   172.747565   0.0062071   86.2131795   57.475453   0.0002724   172.5957952   0.0062276   0.0070774   173.0279686   0.0062142   
02828   173.1185519   0.0062207   0.0070722   173.1859494   0.0062071   86.4321036   57.6214024   0.0002731   173.031177   0.0062276   0.0070796   173.4652729   0.0062142   
02829   173.5532512   0.0062207   0.0070744   173.6220787   0.0062071   86.6498875   57.7665917   0.0002738   173.4672753   0.0062276   0.0070818   173.9032674   0.0062142   
02830   173.9903145   0.0062207   0.0070766   174.060463   0.0062071   86.8688116   57.9125411   0.0002745   173.9026611   0.0062276   0.007084   174.3405716   0.0062142   
02831   174.4185419   0.0062207   0.0070788   174.4903868   0.0062072   87.083684   58.0557893   0.0002752   174.3405708   0.0062276   0.0070861   174.7805734   0.0062142   
02832   174.8556107   0.0062207   0.007081   174.9287712   0.0062072   87.3026081   58.2017388   0.0002759   174.775961   0.0062276   0.0070883   175.2178778   0.0062142   
02833   175.2870751   0.0062208   0.0070832   175.3617341   0.0062072   87.5188587   58.3459058   0.0002765   175.213059   0.0062276   0.0070905   175.6568427   0.0062142   
02834   175.7225441   0.0062208   0.0070854   175.7985956   0.0062072   87.7369913   58.4913275   0.0002772   175.6489222   0.0062276   0.0070927   176.0946259   0.0062142   
02835   175.6635358   0.006224   0.0070883   175.7452197   0.0062104   87.7087225   58.4724817   0.0002771   175.3598685   0.0062321   0.0070956   175.7821394   0.0062186   
02836   176.0963481   0.006224   0.0070905   176.1794039   0.0062105   87.9255529   58.6170352   0.0002778   175.7964461   0.0062321   0.0070978   176.2206141   0.0062186   
02837   176.531599   0.006224   0.0070927   176.6160764   0.0062105   88.1436934   58.7624623   0.0002785   176.2317381   0.0062321   0.0071   176.658016   0.0062186   
02838   176.968694   0.006224   0.0070949   177.0544607   0.0062105   88.3626177   58.9084118   0.0002792   176.6671543   0.0062321   0.0071022   177.0953202   0.0062186   
02839   177.4041411   0.006224   0.0070971   177.4912233   0.0062105   88.5807384   59.0538256   0.0002799   177.1030798   0.0062321   0.0071044   177.5331855   0.0062186   
02840   177.8370438   0.0062241   0.0070993   177.9254923   0.0062105   88.7975779   59.1983853   0.0002805   177.5395802   0.0062321   0.0071066   177.971675   0.0062186   
02841   178.2575125   0.0062241   0.0071014   178.3473132   0.0062105   89.0081541   59.3387694   0.0002812   177.9662259   0.0062321   0.0071087   178.399005   0.0062186   
02842   178.6882128   0.0062241   0.0071036   178.7795151   0.0062106   89.2239672   59.4826448   0.0002819   178.4030933   0.0062321   0.0071109   178.8370842   0.0062186   
02843   178.9366839   0.0062253   0.0071061   179.0305608   0.0062118   89.3496151   59.5664101   0.0002822   178.8919211   0.0062321   0.0071133   179.3224191   0.0062186   
02844   179.3501929   0.0062255   0.0071083   179.4454157   0.0062119   89.5569719   59.7046479   0.0002829   179.2634706   0.0062324   0.0071156   179.6950903   0.006219   
02845   179.7356377   0.0062258   0.0071106   179.8330271   0.0062122   89.7504735   59.833649   0.0002835   179.6737382   0.0062326   0.0071178   180.10038   0.0062192   
02846   172.45135   0.0062762   0.0071244   172.527604   0.0062626   86.1014872   57.4009915   0.0002721   172.6648606   0.0062819   0.0071317   173.0076105   0.0062683   
02847   172.8854838   0.0062762   0.0071266   172.9632025   0.0062626   86.3190577   57.5460385   0.0002728   173.1010544   0.0062819   0.0071339   173.4457636   0.0062683   
02848   173.3147489   0.0062763   0.0071288   173.3940061   0.0062626   86.534244   57.689496   0.0002734   173.4274139   0.0062824   0.0071361   173.7881732   0.0062688   
02849   173.7320912   0.0062764   0.007131   173.8131105   0.0062627   86.7435449   57.8290299   0.0002741   173.8679887   0.0062824   0.0071383   174.2319437   0.0062688   
02850   174.1671941   0.0062764   0.0071332   174.24957   0.0062628   86.9615239   57.9743493   0.0002748   174.3040597   0.0062824   0.0071405   174.669276   0.0062688   
02851   174.6005727   0.0062764   0.0071354   174.6842458   0.0062628   87.1786757   58.1191172   0.0002755   174.7406025   0.0062824   0.0071427   175.1076977   0.0062688   
02852   175.0272895   0.0062765   0.0071376   175.1126178   0.0062628   87.3928283   58.2618856   0.0002761   175.1459169   0.0062826   0.0071449   175.5154853   0.006269   
02853   175.4643849   0.0062765   0.0071398   175.5510021   0.0062628   87.6117526   58.4078351   0.0002768   175.5813261   0.0062826   0.0071471   175.9527893   0.006269   
02854   175.9005901   0.0062765   0.007142   175.9885275   0.0062629   87.8302302   58.5534868   0.0002775   176.0168721   0.0062826   0.0071492   176.3904919   0.006269   
02855   176.3323224   0.0062765   0.0071442   176.4216969   0.0062629   88.046502   58.697668   0.0002782   176.4550885   0.0062826   0.0071514   176.8273793   0.006269   
02856   176.767872   0.0062765   0.0071463   176.8585643   0.0062629   88.2646331   58.8430887   0.0002789   176.8908981   0.0062826   0.0071536   177.2652314   0.006269   
02857   177.136632   0.006277   0.0071486   177.2296709   0.0062633   88.4499351   58.9666234   0.0002794   177.3443226   0.0062826   0.0071559   177.7246699   0.006269   
02858   177.5667659   0.006277   0.0071508   177.6612992   0.0062634   88.6656266   59.1104177   0.0002801   177.7817784   0.0062826   0.0071581   178.1640188   0.006269   
02859   177.9757205   0.0062772   0.0071531   178.0719959   0.0062636   88.8704301   59.2469534   0.0002807   177.9996979   0.0062836   0.0071603   178.4165856   0.0062701   
02860   178.4004575   0.0062773   0.0071553   178.498174   0.0062636   89.0832377   59.3888252   0.0002814   178.4375475   0.0062836   0.0071625   178.8557257   0.0062701   
02861   178.8344368   0.0062773   0.0071575   178.9334222   0.0062637   89.3005639   59.5337093   0.0002821   178.8739342   0.0062836   0.0071647   179.2937781   0.0062701   
02862   179.2715575   0.0062773   0.0071596   179.3718066   0.0062637   89.5194878   59.6796585   0.0002828   179.3093729   0.0062836   0.0071669   179.7310823   0.0062701   
02863   179.6591838   0.0062776   0.0071619   179.7615508   0.0062639   89.7138735   59.809249   0.0002834   179.7106196   0.0062838   0.0071691   180.1392091   0.0062703   
02864   180.0485049   0.0062779   0.0071641   180.1523467   0.0062642   89.9089865   59.9393243   0.000284   180.1068997   0.0062841   0.0071713   180.5234153   0.0062705   
02865   170.6085782   0.0063395   0.0071783   170.6754565   0.0063257   85.1774372   56.7849581   0.0002692   170.5644065   0.0063489   0.0071879   170.8314653   0.0063352   
02866   171.0456303   0.0063395   0.0071805   171.1138408   0.0063257   85.3963612   56.9309074   0.0002699   170.999723   0.0063489   0.0071901   171.2687694   0.0063352   
02867   171.4826848   0.0063395   0.0071827   171.5522252   0.0063257   85.615285   57.0768567   0.0002706   171.4350415   0.0063489   0.0071923   171.7060734   0.0063352   
02868   171.9100221   0.0063396   0.0071849   171.9815145   0.0063258   85.8296039   57.2197359   0.0002712   171.8725987   0.0063489   0.0071945   172.1461538   0.0063352   
02869   172.2603946   0.0063401   0.0071872   172.3341887   0.0063264   86.0057318   57.3371545   0.0002718   171.7374533   0.0063519   0.0071968   172.038066   0.0063382   
02870   172.6906097   0.0063402   0.0071894   172.7660457   0.0063264   86.221362   57.480908   0.0002725   172.1745221   0.0063519   0.007199   172.4774949   0.0063382   
02871   173.1238132   0.0063402   0.0071916   173.2006581   0.0063264   86.4383704   57.6255803   0.0002731   172.6110231   0.0063519   0.0072012   172.9159579   0.0063382   
02872   173.5428529   0.0063403   0.0071938   173.6211475   0.0063265   86.6485158   57.7656772   0.0002738   173.0522309   0.0063519   0.0072034   173.3591249   0.0063382   
02873   173.9689838   0.0063404   0.007196   174.0486997   0.0063266   86.8620905   57.9080603   0.0002745   173.4864112   0.0063519   0.0072056   173.7927608   0.0063382   
02874   174.4051863   0.0063404   0.0071982   174.4862258   0.0063266   87.0805925   58.0537283   0.0002751   173.9220109   0.0063519   0.0072078   174.2303407   0.0063382   
02875   174.8419327   0.0063404   0.0072004   174.9241041   0.0063266   87.2992646   58.1995097   0.0002758   174.3571936   0.0063519   0.00721   174.667439   0.0063382   
02876   175.2084619   0.0063408   0.0072027   175.2958751   0.006327   87.4848668   58.3232445   0.0002764   174.7256347   0.0063523   0.0072123   175.0490053   0.0063386   
02877   175.6455596   0.0063408   0.0072049   175.7342594   0.006327   87.7037907   58.4691938   0.0002771   175.1610111   0.0063523   0.0072145   175.4863093   0.0063386   
02878   176.0784529   0.0063408   0.007207   176.1677176   0.0063271   87.9202678   58.6135119   0.0002778   175.595257   0.0063523   0.0072166   175.9223446   0.0063386   
02879   176.5155551   0.0063408   0.0072092   176.6061019   0.0063271   88.1391916   58.7594611   0.0002785   176.0306386   0.0063523   0.0072188   176.3596486   0.0063386   
02880   176.9400327   0.0063409   0.0072114   177.0323375   0.0063271   88.3520468   58.9013646   0.0002791   176.4716994   0.0063523   0.007221   176.7958397   0.0063386   
02881   177.2743259   0.0063416   0.0072138   177.370727   0.0063278   88.5212513   59.0141675   0.0002797   176.9289839   0.0063523   0.0072233   177.2593435   0.0063386   
02882   177.627989   0.0063421   0.0072161   177.7251637   0.0063283   88.6981066   59.132071   0.0002802   177.3120893   0.0063528   0.0072257   177.6185233   0.0063391   
02883   178.0610088   0.0063421   0.0072183   178.1595192   0.0063283   88.915004   59.2766693   0.0002809   177.7474827   0.0063528   0.0072278   178.0560963   0.0063391   
02884   178.4917493   0.0063421   0.0072204   178.5911968   0.0063284   89.130591   59.420394   0.0002816   178.1816391   0.0063528   0.00723   178.4922974   0.0063391   
02885   178.9038267   0.0063422   0.0072226   179.0048448   0.0063284   89.3371413   59.5580942   0.0002822   178.6027768   0.0063528   0.0072321   178.9125249   0.0063391   
02886   179.3275635   0.0063423   0.0072248   179.4303669   0.0063285   89.5495772   59.6997182   0.0002829   179.0313497   0.0063528   0.0072343   179.3430997   0.0063391   
02887   179.7478403   0.0063423   0.0072269   179.8511982   0.0063286   89.7597302   59.8398201   0.0002835   179.4666704   0.0063528   0.0072365   179.7804238   0.0063391   
02888   172.3326679   0.0063808   0.0072281   172.366338   0.0063669   86.0230954   57.3487303   0.0002718   171.819924   0.0063924   0.0072375   172.0521038   0.0063786   
02889   172.7684262   0.0063808   0.0072303   172.8034994   0.0063669   86.2414131   57.4942754   0.0002725   172.2544997   0.0063924   0.0072397   172.4887171   0.0063786   
02890   173.1649437   0.0063808   0.0072323   173.2001713   0.006367   86.4393792   57.6262528   0.0002731   172.6585471   0.0063924   0.0072417   172.8924452   0.0063786   
02891   173.6020028   0.0063808   0.0072345   173.6385556   0.006367   86.6583034   57.7722023   0.0002738   173.0938887   0.0063924   0.0072439   173.3297494   0.0063786   
02892   174.0194121   0.0063809   0.0072366   174.057055   0.006367   86.8672732   57.9115155   0.0002745   173.4602761   0.0063927   0.007246   173.7011933   0.0063789   
02893   174.4447992   0.0063809   0.0072388   174.4840459   0.0063671   87.0804449   58.05363   0.0002751   173.8970858   0.0063927   0.0072482   174.1402822   0.0063789   
02894   174.8542418   0.0063809   0.0072408   174.8945547   0.0063671   87.2853226   58.1902151   0.0002758   174.310363   0.0063927   0.0072503   174.5522804   0.0063789   
02895   175.2880874   0.006381   0.007243   175.3299139   0.0063671   87.5027084   58.3351389   0.0002765   174.743647   0.0063927   0.0072525   174.9874424   0.0063789   
02896   175.6453905   0.0063813   0.0072451   175.689852   0.0063674   87.6825161   58.4550107   0.000277   175.1622005   0.0063927   0.0072545   175.4051421   0.0063789   
02897   176.0638025   0.0063814   0.0072474   176.1097115   0.0063675   87.8921641   58.5947761   0.0002777   175.6005434   0.0063927   0.0072567   175.844734   0.0063789   
02898   176.4996548   0.0063814   0.0072495   176.5469753   0.0063675   88.1105147   58.7403431   0.0002784   176.035841   0.0063927   0.0072589   176.2820058   0.0063789   
02899   176.9204857   0.0063815   0.0072517   176.9706681   0.0063676   88.3221838   58.8814559   0.000279   176.4639717   0.0063927   0.0072611   176.7131552   0.0063789   
02900   177.3437968   0.0063815   0.0072539   177.3955652   0.0063677   88.5343013   59.0228675   0.0002797   176.8597281   0.0063929   0.0072633   177.1136677   0.0063791   
02901   177.7146015   0.0063819   0.0072561   177.7697542   0.006368   88.7213459   59.1475639   0.0002803   177.2843971   0.0063929   0.0072654   177.5398326   0.0063791   
02902   177.6212575   0.0063821   0.0072558   177.6603493   0.0063682   88.6658617   59.1105745   0.0002801   177.2875842   0.0063929   0.0072654   177.506513   0.0063791   
02903   178.0303743   0.0063822   0.007258   178.0714115   0.0063683   88.8710232   59.2473488   0.0002808   177.7188569   0.0063929   0.0072675   177.9403065   0.0063791   
02904   178.4612893   0.0063822   0.0072602   178.5038921   0.0063684   89.0869903   59.3913269   0.0002814   178.0967956   0.0063932   0.0072697   178.3277712   0.0063794   
02905   178.8934383   0.0063822   0.0072624   178.937536   0.0063684   89.303512   59.5356747   0.0002821   178.4851615   0.0063934   0.0072719   178.721629   0.0063796   
02906   179.0568415   0.006384   0.007265   179.1056701   0.0063701   89.3876636   59.5917757   0.0002824   178.938874   0.0063937   0.0072745   179.1801161   0.0063799   
02907   179.4442591   0.0063843   0.0072672   179.4948924   0.0063704   89.5818806   59.7212537   0.000283   179.0442007   0.0063954   0.0072767   179.3004938   0.0063816   
02908   179.7799455   0.0063849   0.0072695   179.833144   0.006371   89.7508111   59.8338741   0.0002835   179.4929679   0.0063954   0.007279   179.7536487   0.0063816   
02909   180.1448343   0.0063851   0.0072715   180.202218   0.0063712   89.9348691   59.9565794   0.0002841   179.8523229   0.0063956   0.007281   180.1219433   0.0063818   
02910   180.519914   0.0063854   0.0072737   180.5811132   0.0063715   90.1238151   60.0825434   0.0002847   180.1571217   0.0063965   0.0072834   180.4165362   0.0063827   
02911   180.888899   0.0063856   0.0072758   180.9535299   0.0063718   90.30995   60.2066334   0.0002853   180.5190014   0.0063967   0.0072855   180.7829597   0.0063829   
02912   181.1870512   0.0063863   0.0072779   181.2486841   0.0063724   90.4576135   60.3050756   0.0002857   180.9169442   0.0063969   0.0072876   181.1835394   0.0063831   
02913   181.3356098   0.0063878   0.0072802   181.4041371   0.0063739   90.535499   60.3569993   0.000286   181.2130809   0.0063976   0.0072899   181.4950577   0.0063838   
02914   169.9000048   0.0064657   0.0073006   169.9089468   0.0064517   84.7936463   56.5290975   0.000268   169.8082976   0.0064759   0.0073105   169.8973598   0.006462   
02915   170.3360776   0.0064657   0.0073028   170.3464343   0.0064517   85.0121251   56.6747501   0.0002687   170.2438461   0.0064759   0.0073127   170.3349511   0.006462   
02916   170.7597945   0.0064657   0.007305   170.7720675   0.0064518   85.22467   56.8164467   0.0002693   170.6830416   0.0064759   0.0073149   170.7760642   0.006462   
02917   171.1935797   0.0064658   0.0073072   171.2073284   0.0064518   85.4420355   56.961357   0.00027   171.1191541   0.0064759   0.0073171   171.2144871   0.006462   
02918   171.624795   0.0064658   0.0073094   171.640243   0.0064518   85.658227   57.1054847   0.0002707   171.5561881   0.0064759   0.0073193   171.6534493   0.006462   
02919   172.0530485   0.0064659   0.0073116   172.070091   0.0064519   85.8728592   57.2485728   0.0002714   171.9939569   0.0064759   0.0073215   172.0934697   0.006462   
02920   172.4854298   0.0064659   0.0073138   172.5040237   0.0064519   86.0895627   57.3930418   0.0002721   172.4306278   0.0064759   0.0073237   172.532117   0.006462   
02921   172.9224722   0.0064659   0.007316   172.942408   0.0064519   86.3084869   57.5389912   0.0002727   172.8659621   0.0064759   0.0073259   172.9694213   0.006462   
02922   173.3595171   0.0064659   0.0073182   173.3807924   0.0064519   86.5274107   57.6849405   0.0002734   173.301299   0.0064759   0.007328   173.4067254   0.006462   
02923   173.7965645   0.0064659   0.0073203   173.8191767   0.0064519   86.746335   57.83089   0.0002741   173.7366389   0.0064759   0.0073302   173.8440291   0.006462   
02924   174.2272488   0.0064659   0.0073225   174.2513683   0.006452   86.9621762   57.9747841   0.0002748   174.1732785   0.0064759   0.0073324   174.2837929   0.006462   
02925   174.6589486   0.006466   0.0073247   174.6845429   0.006452   87.1784987   58.1189992   0.0002755   174.610236   0.0064759   0.0073346   174.7225678   0.006462   
02926   175.0960042   0.006466   0.0073269   175.1229273   0.006452   87.3974228   58.2649485   0.0002761   175.0455837   0.0064759   0.0073368   175.159872   0.006462   
02927   175.5323302   0.006466   0.0073291   175.5606062   0.006452   87.6159969   58.4106646   0.0002768   175.4824338   0.0064759   0.007339   175.5954658   0.006462   
02928   175.9687655   0.006466   0.0073313   175.9983841   0.006452   87.8346207   58.5564138   0.0002775   175.9183407   0.0064759   0.0073411   176.0325608   0.006462   
02929   176.4035701   0.006466   0.0073335   176.4345676   0.006452   88.0524468   58.7016312   0.0002782   176.3543745   0.0064759   0.0073433   176.4705294   0.006462   
02930   176.7750676   0.0064664   0.0073358   176.8090124   0.0064524   88.2394632   58.8263088   0.0002788   176.7898956   0.0064759   0.0073456   176.91561   0.006462   
02931   177.2112955   0.0064664   0.007338   177.2465899   0.0064524   88.4579829   58.9719886   0.0002795   177.2255125   0.0064759   0.0073478   177.3531599   0.006462   
02932   177.6483699   0.0064664   0.0073402   177.6849742   0.0064524   88.6769069   59.1179379   0.0002801   177.660885   0.0064759   0.00735   177.7904639   0.006462   
02933   178.0727296   0.0064665   0.0073424   178.1108284   0.0064525   88.8896049   59.2597366   0.0002808   178.0999237   0.0064759   0.0073522   178.2317101   0.006462   
02934   178.5053431   0.0064665   0.0073446   178.5448021   0.0064525   89.1063239   59.4042159   0.0002815   178.5366163   0.0064759   0.0073544   178.6703822   0.006462   
02935   174.5295363   0.0064954   0.0073535   174.5582449   0.0064814   87.1149961   58.0766641   0.0002753   174.7047214   0.0065044   0.0073634   174.7266738   0.0064904   
02936   174.9652407   0.0064954   0.0073557   174.9953202   0.0064814   87.3332676   58.2221784   0.0002759   175.0944472   0.0065046   0.0073655   175.1272558   0.0064906   
02937   175.4012652   0.0064954   0.0073579   175.4327202   0.0064814   87.5517007   58.3678005   0.0002766   175.5301036   0.0065046   0.0073677   175.5648626   0.0064906   
02938   175.8361916   0.0064954   0.0073601   175.8690437   0.0064814   87.7695988   58.5130658   0.0002773   175.9192863   0.0065048   0.0073699   175.9615795   0.0064909   
02939   176.2700471   0.0064955   0.0073623   176.3043582   0.0064814   87.9869863   58.6579909   0.000278   176.3552065   0.0065048   0.0073721   176.4001425   0.0064909   
02940   176.7057772   0.0064955   0.0073645   176.7414308   0.0064814   88.2052552   58.8035035   0.0002787   176.744753   0.006505   0.0073743   176.8014457   0.0064911   
02941   177.133266   0.0064955   0.0073667   177.1705508   0.0064815   88.4195504   58.9463669   0.0002793   177.1825907   0.006505   0.0073765   177.2417206   0.0064911   
02942   177.5662166   0.0064956   0.0073689   177.6049323   0.0064815   88.6364764   59.0909843   0.00028   177.6189085   0.006505   0.0073787   177.6805986   0.0064911   
02943   177.9781932   0.0064957   0.0073711   178.0191851   0.0064817   88.8433525   59.2289017   0.0002807   178.0206834   0.0065053   0.0073809   178.0605619   0.0064913   
02944   178.4152802   0.0064957   0.0073733   178.4575694   0.0064817   89.0622765   59.374851   0.0002814   178.4560691   0.0065053   0.0073831   178.4978659   0.0064913   
02945   178.8453236   0.0064958   0.0073755   178.8891625   0.0064817   89.2778211   59.5185474   0.000282   178.8431325   0.0065055   0.0073853   178.8961272   0.0064915   
02946   179.2738517   0.0064958   0.0073777   179.3192762   0.0064818   89.4924985   59.6616657   0.0002827   179.2833058   0.0065055   0.0073875   179.3370836   0.0064915   
02947   179.6871524   0.006496   0.0073799   179.734585   0.0064819   89.6998577   59.7999051   0.0002834   179.7161981   0.0065056   0.0073897   179.7713108   0.0064916   
02948   180.1209726   0.006496   0.0073821   180.1697534   0.006482   89.917158   59.944772   0.000284   180.1525347   0.0065056   0.0073919   180.2096106   0.0064916   
02949   180.5323039   0.0064961   0.0073843   180.5828414   0.0064821   90.1233835   60.0822557   0.0002847   180.4977918   0.006506   0.0073941   180.5696058   0.0064921   
02950   180.8104325   0.0064968   0.0073864   180.8631311   0.0064828   90.2631544   60.1754363   0.0002851   180.6893582   0.0065072   0.0073962   180.7568939   0.0064932   
02951   181.1548041   0.0064974   0.0073887   181.2093135   0.0064834   90.4355635   60.2903757   0.0002857   181.152659   0.0065072   0.0073986   181.2217114   0.0064932   
02952   172.6703504   0.0065445   0.0073931   172.702636   0.0065303   86.1884565   57.458971   0.0002723   172.4626842   0.0065654   0.0074132   172.5885522   0.0065512   
02953   173.1073659   0.0065445   0.0073953   173.1410203   0.0065303   86.4073806   57.6049204   0.000273   172.8980076   0.0065654   0.0074153   173.0258563   0.0065512   
02954   173.5437986   0.0065445   0.0073975   173.5788141   0.0065304   86.6260325   57.7506883   0.0002737   173.334495   0.0065654   0.0074175   173.462832   0.0065512   
02955   173.9808193   0.0065445   0.0073997   174.0171984   0.0065304   86.8449567   57.8966378   0.0002744   173.7698228   0.0065654   0.0074197   173.9001361   0.0065512   
02956   174.405977   0.0065446   0.0074019   174.4445611   0.0065304   87.0584486   58.0389657   0.0002751   174.2071713   0.0065654   0.0074219   174.3403243   0.0065512   
02957   174.8430044   0.0065446   0.0074041   174.8829455   0.0065304   87.2773726   58.1849151   0.0002758   174.642505   0.0065654   0.0074241   174.7776284   0.0065512   
02958   175.2754901   0.0065446   0.0074063   175.3170844   0.0065304   87.4940874   58.3293916   0.0002764   175.0751378   0.0065654   0.0074262   175.212271   0.0065512   
02959   175.7065084   0.0065446   0.0074084   175.7496614   0.0065305   87.7102808   58.4735206   0.0002771   175.5087301   0.0065654   0.0074284   175.647303   0.0065512   
02960   176.1375681   0.0065446   0.0074106   176.1809422   0.0065305   87.9256625   58.6171084   0.0002778   175.9268075   0.0065654   0.0074305   176.0573975   0.0065512   
02961   176.5566933   0.0065447   0.0074128   176.6014638   0.0065306   88.1359523   58.7573015   0.0002784   176.335661   0.0065656   0.0074327   176.4614919   0.0065514   
02962   176.9912121   0.0065447   0.007415   177.0372479   0.0065306   88.3536508   58.9024338   0.0002791   176.7693645   0.0065656   0.0074349   176.8954259   0.0065514   
02963   177.3848435   0.0065447   0.007417   177.4317507   0.0065306   88.5504487   59.0336325   0.0002797   177.1537928   0.0065656   0.0074368   177.2764814   0.0065514   
02964   177.8177553   0.0065448   0.0074192   177.8659646   0.0065306   88.7673564   59.1782376   0.0002804   177.5874261   0.0065656   0.007439   177.7119023   0.0065514   
02965   178.2473635   0.0065448   0.0074214   178.2966656   0.0065306   88.9823923   59.3215949   0.0002811   178.0154721   0.0065656   0.0074412   178.1368485   0.0065515   
02966   178.6397436   0.006545   0.0074236   178.6936394   0.0065309   89.1804183   59.4536122   0.0002817   178.4307269   0.0065656   0.0074432   178.5534211   0.0065515   
02967   179.0566804   0.0065451   0.0074258   179.1127247   0.006531   89.3899137   59.5932758   0.0002824   178.8670081   0.0065656   0.0074454   178.9891744   0.0065515   
02968   179.2956941   0.0065464   0.0074282   179.3632305   0.0065322   89.5154523   59.6769682   0.0002828   179.1312197   0.0065663   0.0074475   179.282196   0.0065522   
02969   179.6215799   0.006547   0.0074305   179.6937799   0.0065328   89.6812637   59.7875091   0.0002833   179.351052   0.0065674   0.0074497   179.5131225   0.0065533   
02970   180.0332155   0.0065471   0.0074326   180.1047921   0.0065329   89.8864237   59.9242825   0.0002839   179.7435644   0.0065674   0.0074517   179.9054234   0.0065533   
02971   180.2290816   0.0065484   0.007435   180.3063819   0.0065343   89.9875765   59.9917176   0.0002842   180.0746682   0.0065677   0.0074537   180.2593633   0.0065536   
02972   180.6392842   0.0065485   0.0074371   180.7178754   0.0065344   90.1928784   60.1285856   0.0002849   180.4925376   0.0065677   0.0074558   180.6790906   0.0065536   
02973   181.0469923   0.0065487   0.0074394   181.1273835   0.0065346   90.397422   60.264948   0.0002855   180.9369997   0.0065677   0.007458   181.1252486   0.0065536   
02974   181.2594515   0.0065502   0.0074419   181.3407814   0.006536   90.5036901   60.3357934   0.0002859   181.4021002   0.0065679   0.0074605   181.5813104   0.0065538   
02975   178.5836327   0.0065707   0.0074489   178.6360858   0.0065565   89.1530123   59.4353415   0.0002816   178.0565721   0.006592   0.0074677   178.1927422   0.0065778   
02976   178.9941142   0.0065709   0.0074511   179.0484329   0.0065567   89.3590679   59.5727119   0.0002823   178.5006636   0.006592   0.0074699   178.636776   0.0065778   
02977   179.4295565   0.0065709   0.0074533   179.4852498   0.0065567   89.5772085   59.718139   0.000283   178.9364877   0.006592   0.0074721   179.0746056   0.0065778   
02978   179.8569277   0.0065709   0.0074555   179.9143971   0.0065567   89.7915511   59.8610341   0.0002836   179.3740577   0.006592   0.0074743   179.5153279   0.0065778   
02979   180.2418997   0.0065713   0.0074578   180.302153   0.0065571   89.9852297   59.9901531   0.0002842   179.8225534   0.006592   0.0074765   179.9669783   0.0065778   
02980   180.6718363   0.0065713   0.00746   180.7337107   0.0065571   90.2007145   60.1338096   0.0002849   180.2584613   0.006592   0.0074787   180.405153   0.0065778   
02981   171.734659   0.0066326   0.0074765   171.7796099   0.0066183   85.7287359   57.1524906   0.0002709   171.1594566   0.0066542   0.0074954   171.2870487   0.00664   
02982   172.1717016   0.0066326   0.0074787   172.2179942   0.0066183   85.9476599   57.29844   0.0002716   171.5947873   0.0066542   0.0074975   171.724353   0.00664   
02983   172.6087468   0.0066326   0.0074808   172.6563786   0.0066183   86.1665838   57.4443892   0.0002723   172.0301199   0.0066542   0.0074997   172.1616569   0.00664   
02984   173.0457945   0.0066326   0.007483   173.0947629   0.0066183   86.3855079   57.5903386   0.000273   172.4654556   0.0066542   0.0075019   172.5989608   0.00664   
02985   173.4801271   0.0066326   0.0074852   173.5305745   0.0066183   86.6031436   57.7354291   0.0002736   172.9016831   0.0066542   0.0075041   173.0365992   0.00664   
02986   173.9171801   0.0066326   0.0074874   173.9689588   0.0066183   86.8220677   57.8813785   0.0002743   173.3370239   0.0066542   0.0075063   173.4739033   0.00664   
02987   174.346373   0.0066326   0.0074896   174.3996371   0.0066184   87.0371858   58.0247905   0.000275   173.7747395   0.0066542   0.0075085   173.9134787   0.00664   
02988   174.7795605   0.0066327   0.0074918   174.8342147   0.0066184   87.2541858   58.1694572   0.0002757   174.2112519   0.0066542   0.0075107   174.3519571   0.00664   
02989   175.2119307   0.0066327   0.007494   175.2680805   0.0066184   87.4708128   58.3138752   0.0002764   174.6046521   0.0066544   0.0075128   174.7503523   0.0066402   
02990   175.6489945   0.0066327   0.0074962   175.7064648   0.0066184   87.6897369   58.4598246   0.000277   175.0400061   0.0066544   0.007515   175.1876565   0.0066402   
02991   176.0845702   0.0066327   0.0074984   176.1434045   0.0066184   87.9079294   58.6052863   0.0002777   175.4756414   0.0066544   0.0075172   175.6256062   0.0066402   
02992   176.5205883   0.0066327   0.0075006   176.5807557   0.0066185   88.1263404   58.7508936   0.0002784   175.9113157   0.0066544   0.0075194   176.0632363   0.0066402   
02993   176.9422213   0.0066328   0.0075028   177.0042108   0.0066186   88.3378283   58.8918855   0.0002791   176.3515634   0.0066544   0.0075216   176.5033209   0.0066402   
02994   177.3792959   0.0066328   0.007505   177.4425951   0.0066186   88.5567523   59.0378349   0.0002798   176.7869296   0.0066544   0.0075238   176.940625   0.0066402   
02995   177.8157502   0.0066328   0.0075072   177.8803758   0.0066186   88.7753808   59.1835872   0.0002804   177.222452   0.0066544   0.007526   177.3780979   0.0066402   
02996   178.2520831   0.0066328   0.0075094   178.318035   0.0066186   88.9939483   59.3292989   0.0002811   177.6581479   0.0066544   0.0075281   177.8154871   0.0066402   
02997   178.6852285   0.0066328   0.0075116   178.7525998   0.0066186   89.2109218   59.4739478   0.0002818   178.0633653   0.0066545   0.0075303   178.2295169   0.0066403   
02998   179.1214193   0.0066328   0.0075137   179.1901176   0.0066186   89.4294166   59.6196111   0.0002825   178.4989926   0.0066545   0.0075325   178.6671084   0.0066403   
02999   179.5576372   0.0066329   0.0075159   179.6276722   0.0066186   89.647927   59.7652847   0.0002832   178.9346269   0.0066545   0.0075347   179.1046679   0.0066403   
03000   179.9947258   0.0066329   0.0075181   180.0660566   0.0066186   89.8668508   59.9112338   0.0002839   179.3700084   0.0066545   0.0075369   179.5419722   0.0066403   
03001   180.4134284   0.006633   0.0075203   180.4864815   0.0066187   90.0767982   60.0511988   0.0002845   179.8108615   0.0066545   0.0075391   179.9846975   0.0066403   
03002   180.8387845   0.006633   0.0075225   180.913285   0.0066188   90.2898598   60.1932399   0.0002852   180.2499389   0.0066545   0.0075413   180.4242795   0.0066403   
03003   181.2725536   0.0066331   0.0075247   181.3484429   0.0066188   90.5071807   60.3381204   0.0002859   180.6863217   0.0066545   0.0075435   180.862562   0.0066403   
03004   181.6996548   0.0066331   0.0075269   181.7771678   0.0066189   90.7212232   60.4808155   0.0002865   181.1239233   0.0066545   0.0075457   181.3021812   0.0066403   
03005   182.069449   0.0066336   0.0075292   182.1494519   0.0066193   90.9073152   60.6048768   0.0002871   181.5303547   0.0066548   0.0075479   181.7092378   0.0066405   
03006   182.4924075   0.0066336   0.0075314   182.5739921   0.0066193   91.1192766   60.7461844   0.0002878   181.9617959   0.0066548   0.0075501   182.1434997   0.0066405   
03007   174.5635949   0.0066879   0.0075458   174.5943591   0.0066736   87.1344905   58.0896603   0.0002753   174.0239716   0.0067093   0.0075648   174.2285829   0.006695   
03008   174.9928914   0.006688   0.007548   175.0252202   0.0066736   87.3497876   58.2331917   0.000276   174.4616976   0.0067093   0.007567   174.6683245   0.006695   
03009   175.4268696   0.006688   0.0075502   175.460732   0.0066736   87.5673105   58.378207   0.0002767   174.8978016   0.0067093   0.0075692   175.1064442   0.006695   
03010   175.8608086   0.006688   0.0075524   175.896244   0.0066737   87.7848143   58.5232095   0.0002774   175.333421   0.0067093   0.0075714   175.5441716   0.006695   
03011   176.2935785   0.006688   0.0075546   176.3306717   0.0066737   88.0018088   58.6678726   0.000278   175.7696307   0.0067093   0.0075736   175.9823386   0.006695   
03012   176.7262121   0.006688   0.0075568   176.7647407   0.0066737   88.2185707   58.8123804   0.0002787   176.12714   0.0067096   0.0075758   176.3529589   0.0066953   
03013   177.1395051   0.0066882   0.007559   177.1809227   0.0066738   88.4264971   58.9509981   0.0002794   176.5608606   0.0067096   0.007578   176.78975   0.0066953   
03014   177.5670941   0.0066883   0.0075612   177.6099837   0.0066739   88.6407575   59.0938384   0.00028   176.8876878   0.0067102   0.0075802   177.128613   0.0066959   
03015   177.9992307   0.0066883   0.0075634   178.0436542   0.0066739   88.8572381   59.2381588   0.0002807   177.3244463   0.0067102   0.0075824   177.5684285   0.0066959   
03016   178.4189354   0.0066884   0.0075656   178.4656203   0.006674   89.0680634   59.3787089   0.0002814   177.7687238   0.0067102   0.0075846   178.009004   0.0066959   
03017   178.855997   0.0066884   0.0075678   178.9040046   0.006674   89.2869873   59.5246582   0.0002821   178.2040928   0.0067102   0.0075868   178.4463082   0.0066959   
03018   179.286158   0.0066884   0.00757   179.3357117   0.0066741   89.5025019   59.6683346   0.0002827   178.6414485   0.0067102   0.007589   178.8855301   0.0066959   
03019   179.6788586   0.0066887   0.0075723   179.7319295   0.0066744   89.7008112   59.8005408   0.0002834   179.0737707   0.0067102   0.0075911   179.3232388   0.0066959   
03020   180.0744019   0.006689   0.0075745   180.1304026   0.0066746   89.8995531   59.9330354   0.000284   179.5168613   0.0067102   0.0075934   179.7695316   0.0066959   
03021   180.5107515   0.006689   0.0075767   180.5680723   0.0066746   90.1181405   60.0787603   0.0002847   179.9526089   0.0067102   0.0075955   180.2073087   0.0066959   
03022   180.9478323   0.006689   0.0075789   181.0064566   0.0066746   90.3370648   60.2247099   0.0002854   180.3879905   0.0067102   0.0075977   180.6446125   0.0066959   
03023   181.3138599   0.0066894   0.0075812   181.3746039   0.0066751   90.5210608   60.3473738   0.0002859   180.4767843   0.006712   0.0076   180.737188   0.0066977   
03024   181.6609642   0.00669   0.0075835   181.7239422   0.0066757   90.6949423   60.4632949   0.0002865   180.943505   0.006712   0.0076024   181.2035177   0.0066977   
03025   182.0913074   0.0066901   0.0075857   182.1556909   0.0066757   90.9105331   60.6070221   0.0002871   181.3788282   0.006712   0.0076046   181.6412595   0.0066977   
03026   182.4675202   0.0066904   0.007588   182.5342487   0.0066761   91.1000922   60.7333948   0.0002877   181.7656549   0.0067124   0.0076069   182.0362029   0.0066981   
03027   182.8282475   0.0066909   0.0075903   182.8979335   0.0066765   91.2814114   60.8542743   0.0002883   182.2128284   0.0067124   0.0076091   182.4849433   0.0066981   
03028   183.2097958   0.0066912   0.0075925   183.2815204   0.0066769   91.4731922   60.9821281   0.0002889   182.5449079   0.0067129   0.0076113   182.8247336   0.0066986   
03029   183.419058   0.0066925   0.0075949   183.4933417   0.0066782   91.5780379   61.0520253   0.0002892   183.0010695   0.006713   0.0076137   183.2854974   0.0066987   
03030   183.4849214   0.0066946   0.0075972   183.5612271   0.0066802   91.6124426   61.0749617   0.0002893   183.1289709   0.0067147   0.0076161   183.4364632   0.0067004   
03031   183.889823   0.0066947   0.0075994   183.9683791   0.0066804   91.8156668   61.2104446   0.00029   183.5005117   0.006715   0.0076183   183.8043059   0.0067007   
03032   184.0065695   0.0066967   0.007602   184.0846724   0.0066823   91.8741158   61.2494105   0.0002902   183.8348043   0.006716   0.0076208   184.1222559   0.0067016   
03033   184.1682168   0.006698   0.0076041   184.2487219   0.0066837   91.9555128   61.3036752   0.0002904   183.7416415   0.0067185   0.0076229   184.033661   0.0067042   
03034   177.0982478   0.0066987   0.0075694   177.179392   0.0066843   88.424257   58.9495047   0.0002794   176.5222081   0.0067185   0.0075869   176.8636869   0.0067042   
03035   177.5325574   0.0066987   0.0075716   177.6151489   0.0066843   88.6418422   59.0945615   0.00028   176.9556201   0.0067185   0.0075891   177.298881   0.0067042   
03036   177.9696761   0.0066987   0.0075738   178.0535333   0.0066843   88.8607664   59.2405109   0.0002807   177.3910256   0.0067185   0.0075912   177.7361851   0.0067042   
03037   178.4067969   0.0066987   0.0075759   178.4919176   0.0066843   89.0796904   59.3864603   0.0002814   177.8264335   0.0067185   0.0075934   178.173489   0.0067042   
03038   178.8284172   0.0066987   0.0075781   178.9136565   0.0066843   89.2901935   59.5267956   0.0002821   178.251622   0.0067185   0.0075955   178.5989616   0.0067042   
03039   179.2622141   0.0066987   0.0075802   179.348728   0.0066843   89.5074713   59.6716475   0.0002828   178.6849558   0.0067185   0.0075977   179.0338724   0.0067042   
03040   179.6983944   0.0066987   0.0075824   179.7861786   0.0066843   89.7259134   59.8172756   0.0002834   179.1193848   0.0067185   0.0075999   179.4702185   0.0067042   
03041   180.1335849   0.0066987   0.0075846   180.2226493   0.0066843   89.943876   59.962584   0.0002841   179.5512577   0.0067185   0.0076021   179.9041907   0.0067042   
03042   180.5671638   0.0066987   0.0075868   180.657221   0.0066843   90.160955   60.1073033   0.0002848   179.9839624   0.0067185   0.0076042   180.3383257   0.0067042   
03043   180.9971739   0.0066987   0.0075889   181.0885609   0.0066843   90.3763312   60.2508875   0.0002855   180.4074922   0.0067185   0.0076064   180.7644398   0.0067042   
03044   181.4335547   0.0066987   0.0075911   181.5260406   0.0066843   90.5947904   60.396527   0.0002862   180.842544   0.0067185   0.0076085   181.2011956   0.0067042   
03045   181.8639263   0.0066987   0.0075933   181.957339   0.0066843   90.8102198   60.5401465   0.0002868   181.2697018   0.0067185   0.0076107   181.6303508   0.0067042   
03046   182.2773853   0.0066987   0.0075953   182.3724834   0.0066843   91.0175252   60.6783501   0.0002875   181.6809697   0.0067185   0.0076127   182.0441282   0.0067042   
03047   182.5609342   0.0066987   0.0075967   182.6494069   0.0066843   91.1561032   60.7707355   0.0002879   182.0016869   0.0067185   0.0076143   182.3537412   0.0067042   
03048   182.9974906   0.0066987   0.0075989   183.0872231   0.0066843   91.3747399   60.9164933   0.0002886   182.4364775   0.0067185   0.0076165   182.7904373   0.0067042   
03049   183.4331665   0.0066987   0.0076011   183.5244331   0.0066843   91.5930533   61.0620355   0.0002893   182.8700123   0.0067185   0.0076187   183.225911   0.0067042   
03050   183.8636801   0.0066987   0.0076033   183.9558089   0.0066843   91.8083803   61.2055868   0.00029   183.3010675   0.0067185   0.0076208   183.6580817   0.0067042   
03051   184.252491   0.0066987   0.0076052   184.3420531   0.0066843   92.0010954   61.3340636   0.0002906   183.7056905   0.0067185   0.0076229   184.0600451   0.0067042   
03052   184.6563586   0.0066988   0.0076073   184.7471742   0.0066844   92.2034639   61.468976   0.0002912   184.1227553   0.0067185   0.0076249   184.4804486   0.0067042   
03053   177.0747027   0.0067511   0.0076216   177.1264765   0.0067367   88.3992162   58.9328108   0.0002793   176.234545   0.0067725   0.0076393   176.5617938   0.0067581   
03054   177.507378   0.0067512   0.0076238   177.5606042   0.0067367   88.6158984   59.0772656   0.00028   176.6713175   0.0067725   0.0076415   177.0004506   0.0067581   
03055   177.9426237   0.0067512   0.007626   177.9972542   0.0067367   88.8339573   59.2226382   0.0002806   177.1072332   0.0067725   0.0076437   177.438302   0.0067581   
03056   178.3772553   0.0067512   0.0076282   178.4332427   0.0067368   89.0516578   59.3677719   0.0002813   177.5433904   0.0067725   0.0076459   177.8763184   0.0067581   
03057   178.8141033   0.0067512   0.0076304   178.8714359   0.0067368   89.2704872   59.5136581   0.000282   177.9789896   0.0067725   0.0076481   178.3134235   0.0067581   
03058   179.240631   0.0067513   0.0076326   179.2994269   0.0067368   89.4842354   59.656157   0.0002827   178.4176787   0.0067725   0.0076503   178.74728   0.0067582   
03059   179.6777192   0.0067513   0.0076347   179.7378113   0.0067368   89.7031594   59.8021063   0.0002834   178.8530737   0.0067725   0.0076525   179.1845843   0.0067582   
03060   180.1092207   0.0067513   0.0076369   180.1708888   0.0067369   89.9193388   59.9462258   0.000284   179.2901034   0.0067725   0.0076547   179.6236037   0.0067582   
03061   180.5457314   0.0067513   0.0076391   180.6087114   0.0067369   90.1379797   60.0919865   0.0002847   179.7255323   0.0067725   0.0076568   180.0612355   0.0067582   
03062   180.9671632   0.0067514   0.0076413   181.031941   0.006737   90.3490395   60.232693   0.0002854   180.1214714   0.0067728   0.007659   180.4649609   0.0067584   
03063   181.4015223   0.0067514   0.0076435   181.4676212   0.006737   90.5666099   60.3777399   0.0002861   180.5581724   0.0067728   0.0076612   180.9024256   0.0067584   
03064   181.8036384   0.0067516   0.0076458   181.8724608   0.0067372   90.7690942   60.5127294   0.0002867   181.0017974   0.0067728   0.0076635   181.3494985   0.0067584   
03065   182.2265203   0.0067517   0.007648   182.2971121   0.0067373   90.9811498   60.6540999   0.0002874   181.4415369   0.0067728   0.0076657   181.790286   0.0067584   
03066   182.6596185   0.0067518   0.0076502   182.7314813   0.0067373   91.1980811   60.7987207   0.000288   181.8781743   0.0067728   0.0076678   182.2288966   0.0067584   
03067   183.0689685   0.0067519   0.0076524   183.1427953   0.0067375   91.4033781   60.9355854   0.0002887   182.321352   0.0067728   0.0076701   182.6746139   0.0067584   
03068   183.5027856   0.006752   0.0076546   183.5779652   0.0067375   91.6207032   61.0804688   0.0002894   182.7575302   0.0067728   0.0076723   183.113256   0.0067584   
03069   183.927332   0.006752   0.0076568   184.0034319   0.0067376   91.8332822   61.2221881   0.00029   183.1912114   0.0067728   0.0076744   183.5469218   0.0067584   
03070   184.2818056   0.0067523   0.0076589   184.3602615   0.0067379   92.0116817   61.3411212   0.0002906   183.5701952   0.006773   0.0076766   183.9259185   0.0067586   
03071   184.6362886   0.0067529   0.0076612   184.7168992   0.0067384   92.1900317   61.4600211   0.0002912   183.9721819   0.0067733   0.0076789   184.3250231   0.0067589   
03072   185.0269718   0.0067531   0.0076634   185.1093972   0.0067386   92.3860699   61.5907133   0.0002918   184.392218   0.0067734   0.0076811   184.7476597   0.006759   
03073   185.3737645   0.0067536   0.0076656   185.4592191   0.0067392   92.5599421   61.7066281   0.0002923   184.7205856   0.0067739   0.0076833   185.0763435   0.0067595   
03074   176.8533026   0.0068123   0.0076815   176.9006886   0.0067978   88.2850046   58.8566698   0.0002789   176.7040368   0.0068303   0.0076993   176.9943822   0.0068158   
03075   177.274056   0.0068124   0.0076837   177.3235104   0.0067979   88.4961615   58.997441   0.0002796   177.1445894   0.0068303   0.0077015   177.4357246   0.0068158   
03076   177.7084155   0.0068124   0.0076859   177.759292   0.0067979   88.7138038   59.1425359   0.0002803   177.5818057   0.0068303   0.0077036   177.8729215   0.0068158   
03077   178.1444095   0.0068124   0.0076881   178.1966454   0.0067979   88.9321978   59.2881318   0.000281   178.0174919   0.0068303   0.0077058   178.3105308   0.0068158   
03078   178.5790052   0.0068124   0.0076903   178.6326149   0.0067979   89.1499246   59.4332831   0.0002816   178.4537125   0.0068303   0.007708   178.7483758   0.0068158   
03079   178.9896799   0.0068126   0.0076925   179.045458   0.0067981   89.3562193   59.5708129   0.0002823   178.6373168   0.0068315   0.0077102   178.9649836   0.006817   
03080   179.4134501   0.0068127   0.0076947   179.4709814   0.0067982   89.5687065   59.712471   0.0002829   179.0766276   0.0068315   0.0077124   179.4062133   0.006817   
03081   179.8319886   0.0068128   0.007697   179.8913945   0.0067983   89.7786351   59.8524234   0.0002836   179.520327   0.0068315   0.0077147   179.8430824   0.006817   
03082   180.2690736   0.0068128   0.0076991   180.3297789   0.0067983   89.9975589   59.9983726   0.0002843   179.9557107   0.0068315   0.0077168   180.2803866   0.006817   
03083   180.6934925   0.0068129   0.0077014   180.7559039   0.0067984   90.2103249   60.1402166   0.000285   180.394852   0.0068315   0.007719   180.7188923   0.006817   
03084   181.128611   0.0068129   0.0077035   181.1924075   0.0067984   90.4283139   60.2855426   0.0002856   180.8308033   0.0068315   0.0077212   181.1567898   0.006817   
03085   181.5570643   0.006813   0.0077057   181.6223808   0.0067984   90.6430811   60.4287208   0.0002863   181.2687556   0.0068315   0.0077234   181.5966894   0.006817   
03086   181.9876201   0.006813   0.0077079   182.0542983   0.0067985   90.858824   60.5725494   0.000287   181.7062251   0.0068315   0.0077256   182.0359287   0.006817   
03087   182.4229145   0.006813   0.0077101   182.4908684   0.0067985   91.076858   60.7179053   0.0002877   182.1408548   0.0068315   0.0077278   182.4724273   0.006817   
03088   182.8322974   0.0068132   0.0077124   182.9021762   0.0067986   91.2821395   60.8547597   0.0002883   182.5379101   0.0068317   0.00773   182.8726672   0.0068173   
03089   183.2652982   0.0068132   0.0077146   183.3365174   0.0067987   91.4990491   60.999366   0.000289   182.9745773   0.0068317   0.0077322   183.3112043   0.0068173   
03090   183.6861316   0.0068133   0.0077168   183.7590379   0.0067988   91.7101099   61.1400733   0.0002897   183.2914651   0.0068323   0.0077344   183.6422617   0.0068178   
03091   184.1157566   0.0068134   0.007719   184.1901418   0.0067988   91.9253882   61.2835922   0.0002903   183.6876016   0.0068325   0.0077366   184.042555   0.006818   
03092   184.5339837   0.0068135   0.0077212   184.6112202   0.0067989   92.1357137   61.4238091   0.000291   184.056242   0.0068329   0.0077388   184.4094563   0.0068184   
03093   184.8210563   0.0068144   0.0077236   184.9042885   0.0067999   92.2818325   61.5212217   0.0002914   184.3251961   0.0068338   0.0077411   184.6920291   0.0068193   
03094   185.2321333   0.0068145   0.0077257   185.3162576   0.0068   92.4888025   61.6592017   0.0002921   184.7161666   0.006834   0.0077432   185.0778673   0.0068195   
03095   185.619315   0.0068148   0.007728   185.705371   0.0068003   92.6828507   61.7885671   0.0002927   185.0923758   0.0068344   0.0077455   185.4527212   0.0068199   
03096   185.9080681   0.0068156   0.0077302   185.9954932   0.006801   92.8284664   61.8856443   0.0002931   185.4155808   0.006835   0.0077477   185.7863537   0.0068205   
03097   186.2606278   0.006816   0.0077323   186.3500925   0.0068014   93.0056939   62.003796   0.0002937   185.846245   0.006835   0.0077499   186.2111434   0.0068205   
03098   181.4261688   0.0068228   0.0077149   181.5119016   0.0068082   90.5896083   60.3930722   0.0002865   181.2296388   0.0068396   0.0077313   181.5513111   0.0068251   
03099   181.8581111   0.0068228   0.0077171   181.9451806   0.0068082   90.8061143   60.5374096   0.0002872   181.6633709   0.0068396   0.0077334   181.9871332   0.0068251   
03100   182.2904543   0.0068228   0.0077193   182.3787295   0.0068082   91.0225024   60.6816682   0.0002878   182.0526596   0.0068399   0.0077356   182.3704021   0.0068254   
03101   182.72273   0.0068228   0.0077214   182.8118148   0.0068082   91.2387852   60.8258568   0.0002885   182.4845612   0.0068399   0.0077378   182.8039468   0.0068254   
03102   183.1393234   0.0068228   0.0077235   183.2303624   0.0068082   91.4477005   60.9651337   0.0002892   182.896324   0.0068399   0.0077399   183.218774   0.0068254   
03103   183.4599479   0.0068228   0.0077251   183.5500716   0.0068082   91.6074398   61.0716265   0.0002896   183.2181077   0.0068399   0.0077415   183.5399112   0.0068254   
03104   183.8927483   0.0068228   0.0077273   183.9842566   0.0068082   91.8244112   61.2162741   0.0002903   183.6482009   0.0068399   0.0077436   183.9719307   0.0068254   
03105   184.3242421   0.0068228   0.0077295   184.4169842   0.0068083   92.0404765   61.3603177   0.000291   184.0829054   0.0068399   0.0077458   184.408579   0.0068254   
03106   184.706434   0.0068229   0.0077314   184.7987365   0.0068083   92.2307931   61.4871954   0.0002916   184.4407745   0.0068401   0.0077478   184.7656447   0.0068256   
03107   185.1201242   0.006823   0.0077336   185.2146371   0.0068084   92.4382726   61.6255151   0.0002922   184.8682167   0.0068401   0.0077499   185.1951957   0.0068256   
03108   177.839565   0.0068734   0.0077474   177.8945401   0.0068588   88.7808788   59.1872525   0.0002808   177.3570783   0.0068917   0.0077638   177.6843468   0.0068771   
03109   178.2765881   0.0068734   0.0077496   178.3329245   0.0068588   88.9998028   59.3332019   0.0002815   177.7923801   0.0068917   0.007766   178.1216507   0.0068771   
03110   178.707848   0.0068734   0.0077518   178.7657268   0.0068588   89.2159186   59.4772791   0.0002822   178.2294409   0.0068917   0.0077682   178.5606697   0.0068771   
03111   179.1093818   0.0068737   0.007754   179.1696671   0.006859   89.4172424   59.611495   0.0002828   178.6756638   0.0068917   0.0077704   179.0084092   0.0068771   
03112   179.5464155   0.0068737   0.0077562   179.6080515   0.006859   89.6361664   59.7574443   0.0002835   179.1109728   0.0068917   0.0077726   179.4457133   0.0068771   
03113   179.9834517   0.0068737   0.0077584   180.0464358   0.006859   89.8550906   59.9033938   0.0002842   179.5462844   0.0068917   0.0077748   179.8830173   0.0068771   
03114   180.4204902   0.0068737   0.0077606   180.4848201   0.006859   90.0740148   60.0493432   0.0002848   179.9815988   0.0068917   0.007777   180.3203214   0.0068771   
03115   180.8526744   0.0068737   0.0077628   180.9184765   0.0068591   90.2906126   60.1937417   0.0002855   180.357004   0.006892   0.0077791   180.7048481   0.0068774   
03116   181.2832567   0.0068737   0.007765   181.3506473   0.0068591   90.506428   60.3376187   0.0002862   180.7951769   0.006892   0.0077813   181.138584   0.0068774   
03117   181.7081552   0.0068738   0.0077672   181.7771342   0.0068592   90.7193291   60.4795528   0.0002869   181.1686326   0.0068923   0.0077835   181.5145567   0.0068777   
03118   182.1422366   0.0068738   0.0077694   182.2126373   0.0068592   90.9368445   60.624563   0.0002875   181.6054228   0.0068923   0.0077857   181.9510873   0.0068777   
03119   182.5792891   0.0068738   0.0077716   182.6510217   0.0068592   91.1557682   60.7705122   0.0002882   182.04076   0.0068923   0.0077879   182.3883912   0.0068777   
03120   182.9939669   0.006874   0.0077738   183.0677995   0.0068593   91.3638858   60.9092572   0.0002889   182.4828149   0.0068923   0.0077901   182.8323686   0.0068777   
03121   183.4296224   0.006874   0.007776   183.5048265   0.0068593   91.5821316   61.0547544   0.0002896   182.9185785   0.0068923   0.0077923   183.2700885   0.0068777   
03122   183.8574107   0.006874   0.0077782   183.9342377   0.0068594   91.7966417   61.1977611   0.0002902   183.3593732   0.0068923   0.0077945   183.7059935   0.0068777   
03123   184.2891428   0.0068741   0.0077804   184.3674753   0.0068594   92.0130054   61.3420036   0.0002909   183.7963236   0.0068923   0.0077967   184.1448786   0.0068777   
03124   184.7217668   0.0068741   0.0077825   184.8013799   0.0068594   92.2295805   61.486387   0.0002916   184.2281012   0.0068923   0.0077989   184.5782364   0.0068777   
03125   185.149537   0.0068741   0.0077847   185.230733   0.0068595   92.4439901   61.6293267   0.0002923   184.6678396   0.0068923   0.0078011   185.0138569   0.0068777   
03126   185.5813761   0.0068742   0.0077869   185.6639274   0.0068595   92.6604017   61.7736012   0.0002929   185.1052584   0.0068923   0.0078032   185.4525118   0.0068777   
03127   185.9823243   0.0068744   0.0077892   186.0661864   0.0068597   92.8609281   61.9072854   0.0002936   185.5568377   0.0068923   0.0078055   185.8990088   0.0068777   
03128   186.0644167   0.0068767   0.0077919   186.1460488   0.006862   92.9024447   61.9349631   0.0002937   185.0948681   0.0068977   0.0078086   185.4475146   0.0068831   
03129   186.4941111   0.0068767   0.0077941   186.5772289   0.0068621   93.1177385   62.0784923   0.0002944   185.5312181   0.0068977   0.0078108   185.885684   0.0068831   
03130   186.8023717   0.0068773   0.0077962   186.8894648   0.0068627   93.2732104   62.1821403   0.0002949   185.9370864   0.0068978   0.0078129   186.2767818   0.0068832   
03131   187.1666591   0.0068777   0.0077984   187.2558318   0.006863   93.4559421   62.3039614   0.0002954   186.3624887   0.0068978   0.007815   186.7026617   0.0068832   
03132   187.5124679   0.0068782   0.0078007   187.6028732   0.0068636   93.6288635   62.4192423   0.000296   186.5296384   0.0068992   0.0078173   186.865269   0.0068846   
03133   187.5757461   0.0068803   0.0078031   187.6690562   0.0068656   93.6637704   62.4425136   0.0002961   186.7782267   0.0069003   0.0078197   187.1377292   0.0068857   
03134   177.6472705   0.0069481   0.0078211   177.7053419   0.0069334   88.6874555   59.1249703   0.0002805   176.654494   0.0069694   0.0078379   176.9249371   0.0069547   
03135   178.0833467   0.0069481   0.0078233   178.1428083   0.0069334   88.9059201   59.2706134   0.0002812   177.0901572   0.0069694   0.00784   177.3624693   0.0069547   
03136   178.5156174   0.0069482   0.0078255   178.576608   0.0069335   89.1225514   59.4150343   0.0002819   177.5267938   0.0069694   0.0078422   177.8011886   0.0069547   
03137   178.9490802   0.0069482   0.0078277   179.0115691   0.0069335   89.3397652   59.5598435   0.0002825   177.9634232   0.0069694   0.0078444   178.2390892   0.0069547   
03138   179.3471695   0.0069484   0.00783   179.4121612   0.0069337   89.5398116   59.6932078   0.0002832   178.4095633   0.0069694   0.0078467   178.6879186   0.0069547   
03139   179.7779431   0.0069485   0.0078322   179.8444511   0.0069338   89.7557009   59.8371339   0.0002838   178.8466711   0.0069694   0.0078488   179.1271986   0.0069547   
03140   180.212918   0.0069485   0.0078343   180.2808396   0.0069338   89.9736221   59.9824147   0.0002845   179.2293471   0.0069696   0.007851   179.5158114   0.006955   
03141   180.6449181   0.0069485   0.0078365   180.7142929   0.0069338   90.1900787   60.1267191   0.0002852   179.6662642   0.0069696   0.0078532   179.954543   0.006955   
03142   181.0819819   0.0069485   0.0078387   181.1526773   0.0069338   90.4090027   60.2726685   0.0002859   180.1016343   0.0069696   0.0078554   180.3918472   0.006955   
03143   181.4922636   0.0069487   0.007841   181.5649631   0.006934   90.6148753   60.4099169   0.0002865   180.5459235   0.0069696   0.0078576   180.8357339   0.006955   
03144   181.9127311   0.0069488   0.0078432   181.9869646   0.0069341   90.8256868   60.5504578   0.0002872   180.9865135   0.0069696   0.0078598   181.278081   0.006955   
03145   182.3451477   0.0069488   0.0078454   182.4208173   0.0069341   91.0423393   60.6948929   0.0002879   181.4233384   0.0069696   0.007862   181.7168181   0.006955   
03146   182.744523   0.0069491   0.0078476   182.8220921   0.0069344   91.2426729   60.8284486   0.0002885   181.8136253   0.0069699   0.0078643   182.1080371   0.0069553   
03147   183.163539   0.0069492   0.0078498   183.2428188   0.0069345   91.4527017   60.9684678   0.0002892   182.2544444   0.0069699   0.0078665   182.5507628   0.0069553   
03148   183.5930325   0.0069492   0.007852   183.6738338   0.0069345   91.6679008   61.1119339   0.0002898   182.649457   0.0069701   0.0078687   182.9462201   0.0069555   
03149   184.0301173   0.0069492   0.0078542   184.1122181   0.0069345   91.8868248   61.2578832   0.0002905   183.0848442   0.0069701   0.0078708   183.3835244   0.0069555   
03150   184.4630881   0.0069493   0.0078564   184.5465927   0.0069346   92.1037405   61.4024936   0.0002912   183.4783312   0.0069703   0.007873   183.7829166   0.0069557   
03151   184.860368   0.0069495   0.0078587   184.945887   0.0069348   92.3032116   61.5354744   0.0002918   183.8347465   0.0069708   0.0078753   184.1395815   0.0069561   
03152   185.2974611   0.0069495   0.0078609   185.3842714   0.0069348   92.5221354   61.6814236   0.0002925   184.2701444   0.0069708   0.0078775   184.5768857   0.0069561   
03153   185.7193542   0.0069496   0.0078631   185.8076578   0.0069349   92.7335465   61.8223643   0.0002932   184.7099416   0.0069708   0.0078797   185.0192612   0.0069561   
03154   186.1533629   0.0069496   0.0078653   186.2429767   0.0069349   92.9509265   61.9672843   0.0002938   185.1463257   0.0069708   0.0078818   185.457417   0.0069561   
03155   186.5904628   0.0069496   0.0078674   186.681361   0.0069349   93.1698507   62.1132338   0.0002945   185.5817294   0.0069708   0.007884   185.8947213   0.0069561   
03156   187.0188639   0.0069497   0.0078696   187.1114508   0.006935   93.3847398   62.2564932   0.0002952   185.9894316   0.0069709   0.0078862   186.3046296   0.0069563   
03157   187.3786697   0.0069502   0.007872   187.4730486   0.0069355   93.5650577   62.3767051   0.0002958   186.4463645   0.0069709   0.0078885   186.7653442   0.0069563   
03158   180.9945715   0.0069949   0.0078845   181.0461803   0.0069801   90.3564613   60.2376408   0.0002857   180.5705981   0.0070131   0.0079012   180.8655422   0.0069984   
03159   181.4315929   0.0069949   0.0078866   181.4845647   0.0069801   90.5753857   60.3835904   0.0002864   181.0059515   0.0070131   0.0079034   181.3028464   0.0069984   
03160   181.8686168   0.0069949   0.0078888   181.922949   0.0069801   90.7943094   60.5295396   0.0002871   181.4413071   0.0070131   0.0079055   181.7401504   0.0069984   
03161   182.2942402   0.006995   0.007891   182.349968   0.0069802   91.0075988   60.6717325   0.0002878   181.8808168   0.0070131   0.0079077   182.1821128   0.0069984   
03162   182.724947   0.006995   0.0078932   182.7822354   0.0069802   91.2234726   60.8156484   0.0002884   182.3185051   0.0070131   0.0079099   182.6220107   0.0069984   
03163   183.1482077   0.0069951   0.0078955   183.2069445   0.0069803   91.4355868   60.9570579   0.0002891   182.7580847   0.0070131   0.0079121   183.0648118   0.0069984   
03164   183.5796694   0.0069951   0.0078976   183.6403415   0.0069803   91.6519685   61.1013124   0.0002898   183.1927816   0.0070131   0.0079143   183.5013639   0.0069984   
03165   184.0156947   0.0069951   0.0078998   184.0777327   0.0069803   91.870401   61.246934   0.0002905   183.6285182   0.0070131   0.0079165   183.9389744   0.0069984   
03166   184.4527351   0.0069951   0.007902   184.516117   0.0069803   92.0893251   61.3928834   0.0002911   184.063889   0.0070131   0.0079187   184.3762785   0.0069984   
03167   184.884123   0.0069952   0.0079042   184.9492463   0.0069804   92.305624   61.5370827   0.0002918   184.4999368   0.0070131   0.0079209   184.8146183   0.0069984   
03168   185.3199535   0.0069952   0.0079064   185.3864296   0.0069804   92.5239469   61.6826312   0.0002925   184.9357054   0.0070131   0.0079231   185.2522861   0.0069984   
03169   185.7520988   0.0069952   0.0079086   185.8200363   0.0069804   92.7404763   61.8269842   0.0002932   185.3736473   0.0070131   0.0079253   185.6915255   0.0069984   
03170   186.1803608   0.0069953   0.0079108   186.2500165   0.0069804   92.9552091   61.9701394   0.0002939   185.7323701   0.0070135   0.0079274   186.0598866   0.0069988   
03171   186.6099657   0.0069953   0.007913   186.6811146   0.0069805   93.1704688   62.1136458   0.0002945   186.1699034   0.0070135   0.0079296   186.4997269   0.0069988   
03172   186.7800053   0.0069971   0.0079156   186.8526466   0.0069822   93.2563336   62.1708891   0.0002948   186.1719432   0.0070163   0.0079324   186.4970342   0.0070015   
03173   187.1607595   0.0069972   0.0079177   187.2366231   0.0069824   93.4481672   62.2987781   0.0002954   186.5720395   0.0070163   0.0079344   186.9008148   0.0070015   
03174   187.5568621   0.0069975   0.0079199   187.6342225   0.0069826   93.6467077   62.4311385   0.000296   186.9037176   0.0070168   0.0079366   187.2339665   0.0070021   
03175   187.9009751   0.006998   0.0079221   187.9814801   0.0069831   93.8198808   62.5465872   0.0002966   187.3255546   0.0070168   0.0079388   187.6544156   0.0070021   
03176   188.2214034   0.0069986   0.0079244   188.3036917   0.0069838   93.9806706   62.6537804   0.0002971   187.7150507   0.0070172   0.0079411   188.0335118   0.0070025   
03177   179.1344692   0.007061   0.0079411   179.18443   0.0070461   89.4261162   59.6174108   0.0002828   178.9328183   0.0070781   0.0079579   179.2052901   0.0070633   
03178   179.5714865   0.007061   0.0079433   179.6228143   0.0070461   89.6450404   59.7633602   0.0002835   179.3681868   0.0070781   0.0079601   179.6425943   0.0070633   
03179   180.0050067   0.007061   0.0079455   180.0578787   0.0070461   89.8623112   59.9082075   0.0002842   179.8050926   0.0070781   0.0079623   180.0799901   0.0070633   
03180   180.4361501   0.007061   0.0079477   180.4906559   0.0070461   90.0784371   60.0522914   0.0002849   180.242214   0.0070781   0.0079645   180.5189796   0.0070633   
03181   180.8442082   0.0070612   0.00795   180.901168   0.0070463   90.2834345   60.1889563   0.0002855   180.6867233   0.0070781   0.0079667   180.9631309   0.0070633   
03182   181.2771216   0.0070612   0.0079522   181.335603   0.0070463   90.5003798   60.3335865   0.0002862   181.1080402   0.0070782   0.0079689   181.3818957   0.0070634   
03183   181.7079245   0.0070613   0.0079544   181.7679727   0.0070464   90.716297   60.4775314   0.0002869   181.5472265   0.0070782   0.0079711   181.8181047   0.0070634   
03184   182.1413577   0.0070613   0.0079565   182.2029223   0.0070464   90.9335105   60.6223403   0.0002875   181.9832079   0.0070782   0.0079733   182.2568616   0.0070634   
03185   182.5753781   0.0070613   0.0079587   182.6382942   0.0070464   91.1509336   60.7672891   0.0002882   182.4195286   0.0070782   0.0079754   182.6950745   0.0070634   
03186   183.0085058   0.0070613   0.0079609   183.0728695   0.0070464   91.3679505   60.911967   0.0002889   182.8561519   0.0070782   0.0079776   183.1333766   0.0070634   
03187   183.4444247   0.0070614   0.0079631   183.5101601   0.0070464   91.5863277   61.0575518   0.0002896   183.2919741   0.0070782   0.0079798   183.5707325   0.0070634   
03188   183.8795639   0.0070614   0.0079653   183.9467002   0.0070465   91.8043284   61.2028856   0.0002903   183.6818238   0.0070784   0.007982   183.9684424   0.0070636   
03189   184.2419119   0.0070618   0.0079676   184.3123472   0.0070469   91.9869157   61.3246105   0.0002908   184.1392404   0.0070784   0.0079843   184.4274485   0.0070636   
03190   184.6399413   0.0070621   0.0079699   184.7128186   0.0070472   92.1868924   61.4579282   0.0002915   184.586333   0.0070784   0.0079865   184.8762752   0.0070636   
03191   185.0652184   0.0070622   0.0079721   185.139754   0.0070473   92.4001023   61.6000682   0.0002921   185.0257339   0.0070784   0.0079887   185.3160246   0.0070636   
03192   185.4753312   0.0070623   0.0079743   185.5518766   0.0070474   92.6059129   61.7372753   0.0002928   185.469276   0.0070784   0.0079909   185.7614735   0.0070636   
03193   185.9110179   0.0070623   0.0079765   185.9889294   0.0070474   92.8241725   61.8827817   0.0002934   185.8999315   0.0070785   0.0079931   186.193929   0.0070637   
03194   186.3389186   0.0070624   0.0079787   186.4182483   0.0070475   93.0385839   62.0257226   0.0002941   186.3384009   0.0070785   0.0079953   186.6336059   0.0070637   
03195   186.7648738   0.0070625   0.0079809   186.8457574   0.0070476   93.252054   62.168036   0.0002948   186.7194417   0.0070788   0.0079975   187.0103637   0.007064   
03196   187.1958683   0.0070625   0.0079831   187.2782231   0.0070476   93.4680248   62.3120165   0.0002955   187.1213403   0.0070789   0.0079997   187.4177435   0.0070641   
03197   187.6033127   0.0070627   0.0079853   187.6879142   0.0070478   93.6726226   62.448415   0.0002961   187.343124   0.00708   0.0080019   187.6721962   0.0070652   
03198   188.027694   0.0070628   0.0079875   188.1139204   0.0070479   93.8853501   62.5902334   0.0002968   187.782165   0.00708   0.0080041   188.1129577   0.0070652   
03199   188.4115044   0.0070631   0.0079898   188.5006047   0.0070482   94.0784272   62.7189515   0.0002974   188.2254636   0.00708   0.0080064   188.562631   0.0070652   
03200   188.4846194   0.0070636   0.0079906   188.5707539   0.0070486   94.1207344   62.7471563   0.0002977   188.3402103   0.0070803   0.0080073   188.6870991   0.0070655   
03201   180.0029236   0.0071219   0.0080064   180.0501088   0.0071069   89.8644485   59.9096323   0.0002843   179.8449162   0.0071388   0.0080232   180.1957407   0.007124   
03202   180.4362976   0.007122   0.0080086   180.4849707   0.007107   90.0816795   60.054453   0.000285   180.2276518   0.0071391   0.0080254   180.5872609   0.0071242   
03203   180.8603905   0.007122   0.0080108   180.9106995   0.0071071   90.294236   60.1961574   0.0002857   180.6294664   0.0071393   0.0080276   180.9941569   0.0071244   
03204   181.2967458   0.007122   0.008013   181.3484197   0.0071071   90.5128254   60.3418836   0.0002864   181.0649659   0.0071393   0.0080298   181.4317671   0.0071244   
03205   181.7272999   0.0071221   0.0080152   181.7805287   0.0071071   90.7287036   60.4858024   0.000287   181.5044303   0.0071393   0.008032   181.8671309   0.0071244   
03206   182.1591277   0.0071221   0.0080173   182.2140304   0.0071071   90.9452344   60.6301563   0.0002877   181.9411141   0.0071393   0.0080342   182.3061507   0.0071244   
03207   182.590555   0.0071222   0.0080195   182.6469717   0.0071072   91.1613536   60.7742358   0.0002884   182.3335978   0.0071395   0.0080364   182.6975784   0.0071246   
03208   183.0275892   0.0071222   0.0080217   183.0853561   0.0071072   91.380278   60.9201853   0.0002891   182.7689925   0.0071395   0.0080386   183.1348826   0.0071246   
03209   183.4374866   0.0071223   0.008024   183.4976908   0.0071073   91.586092   61.0573947   0.0002897   183.2137745   0.0071395   0.0080408   183.5770367   0.0071246   
03210   183.8745281   0.0071223   0.0080262   183.9360752   0.0071073   91.805016   61.203344   0.0002904   183.6491753   0.0071395   0.008043   184.0143407   0.0071246   
03211   184.3088418   0.0071223   0.0080283   184.3718411   0.0071074   92.0226116   61.3484077   0.0002911   184.0854221   0.0071395   0.0080452   184.4523386   0.0071246   
03212   184.6546876   0.0071229   0.0080307   184.7206905   0.0071079   92.197015   61.4646766   0.0002916   184.5485634   0.0071395   0.0080475   184.9163759   0.0071246   
03213   185.0917407   0.0071229   0.0080329   185.1590749   0.0071079   92.4159391   61.6106261   0.0002923   184.9839716   0.0071395   0.0080497   185.35368   0.0071246   
03214   185.496117   0.0071231   0.0080351   185.5656459   0.0071081   92.6188008   61.7458672   0.000293   185.4287537   0.0071395   0.0080519   185.8004599   0.0071246   
03215   185.9331767   0.0071231   0.0080373   186.0040302   0.0071081   92.8377251   61.8918167   0.0002936   185.8641674   0.0071395   0.0080541   186.237764   0.0071246   
03216   186.3681486   0.0071231   0.0080395   186.4403805   0.0071082   93.0556218   62.0370812   0.0002943   186.3002253   0.0071395   0.0080563   186.6756757   0.0071246   
03217   186.805213   0.0071231   0.0080417   186.8787648   0.0071082   93.2745458   62.1830305   0.000295   186.7356429   0.0071395   0.0080584   187.1129798   0.0071246   
03218   187.2410955   0.0071232   0.0080439   187.3159893   0.0071082   93.4929025   62.3286016   0.0002957   187.1714048   0.0071395   0.0080606   187.5506511   0.0071246   
03219   187.6682863   0.0071232   0.0080461   187.7446329   0.0071082   93.7071531   62.4714354   0.0002964   187.6092393   0.0071395   0.0080628   187.9905494   0.0071246   
03220   188.0242589   0.0071236   0.0080483   188.1126627   0.0071087   93.8909068   62.5939379   0.0002969   188.0245295   0.0071395   0.0080649   188.4081795   0.0071246   
03221   180.585698   0.0071347   0.008022   180.5912833   0.0071197   90.1013194   60.0675462   0.0002856   180.5159549   0.0071463   0.0080337   180.6987301   0.0071314   
03222   181.0129591   0.0071348   0.0080242   181.0212636   0.0071198   90.3162159   60.2108106   0.0002862   180.9488535   0.0071463   0.0080359   181.1337949   0.0071314   
03223   181.4487732   0.0071348   0.0080264   181.4580067   0.0071198   90.5343052   60.3562035   0.0002869   181.3834779   0.0071463   0.008038   181.5702885   0.0071314   
03224   181.8833979   0.0071348   0.0080286   181.8941828   0.0071198   90.7521101   60.5014067   0.0002876   181.8184845   0.0071463   0.0080402   182.0074041   0.0071314   
03225   182.3194291   0.0071348   0.0080308   182.3313505   0.0071198   90.9704106   60.6469404   0.0002883   182.2536563   0.0071463   0.0080424   182.4445283   0.0071314   
03226   182.7564591   0.0071348   0.0080329   182.7697349   0.0071198   91.1893342   60.7928895   0.000289   182.68904   0.0071463   0.0080446   182.8818323   0.0071314   
03227   183.1874892   0.0071348   0.0080351   183.2028836   0.0071198   91.4054663   60.9369776   0.0002897   183.1213877   0.0071463   0.0080468   183.315444   0.0071314   
03228   183.6218994   0.0071348   0.0080373   183.6386823   0.0071198   91.6231696   61.0821131   0.0002903   183.554049   0.0071463   0.0080489   183.7501022   0.0071314   
03229   184.0527835   0.0071348   0.0080395   184.0718106   0.0071198   91.8394693   61.2263129   0.000291   183.9866093   0.0071463   0.0080511   184.1843899   0.0071314   
03230   184.4873805   0.0071349   0.0080417   184.5080316   0.0071198   92.0572667   61.3715111   0.0002917   184.4202478   0.0071463   0.0080533   184.6198124   0.0071314   
03231   184.9193456   0.0071349   0.0080438   184.9411839   0.0071198   92.2735996   61.515733   0.0002924   184.8526528   0.0071463   0.0080554   185.054017   0.0071314   
03232   185.3257166   0.0071349   0.0080459   185.345792   0.0071199   92.4758191   61.6505461   0.000293   185.218569   0.0071465   0.0080575   185.426984   0.0071316   
03233   185.7573844   0.0071349   0.008048   185.7789947   0.0071199   92.6919985   61.7946657   0.0002937   185.6490609   0.0071465   0.0080597   185.8594632   0.0071316   
03234   186.1924524   0.0071349   0.0080502   186.2153552   0.0071199   92.9099664   61.9399776   0.0002944   186.0836865   0.0071465   0.0080619   186.2960189   0.0071316   
03235   186.5456838   0.007135   0.0080521   186.562435   0.00712   93.0828988   62.0552659   0.0002949   186.436412   0.0071468   0.0080639   186.6475834   0.0071319   
03236   186.9747107   0.0071351   0.0080543   186.9937207   0.00712   93.2984261   62.1989507   0.0002956   186.8692948   0.0071468   0.008066   187.0827361   0.0071319   
03237   180.4869637   0.0071803   0.008067   180.4947279   0.0071652   90.0508664   60.0339109   0.0002854   180.4962763   0.0071913   0.0080787   180.707571   0.0071764   
03238   180.7491389   0.0071814   0.0080694   180.7638344   0.0071663   90.1857803   60.1238535   0.0002858   180.9332018   0.0071916   0.0080811   181.15082   0.0071766   
03239   181.185111   0.0071814   0.0080716   181.2011927   0.0071663   90.4042206   60.2694804   0.0002865   181.3689058   0.0071916   0.0080833   181.5884413   0.0071766   
03240   181.6153322   0.0071814   0.0080738   181.6329926   0.0071663   90.6198519   60.4132346   0.0002872   181.8063626   0.0071916   0.0080855   182.0277926   0.0071766   
03241   182.0494628   0.0071814   0.008076   182.068559   0.0071663   90.8374209   60.5582806   0.0002879   182.2425951   0.0071916   0.0080877   182.4660234   0.0071766   
03242   182.4668433   0.0071816   0.0080782   182.488011   0.0071665   91.0465912   60.6977275   0.0002885   182.6822006   0.0071916   0.0080899   182.9083226   0.0071766   
03243   182.9031966   0.0071816   0.0080804   182.9257064   0.0071665   91.2651947   60.8434632   0.0002892   183.1177954   0.0071916   0.0080921   183.3458587   0.0071766   
03244   183.3402553   0.0071816   0.0080826   183.3640908   0.0071665   91.4841186   60.9894124   0.0002899   183.5531911   0.0071916   0.0080942   183.7831629   0.0071766   
03245   183.7655674   0.0071816   0.0080848   183.7908885   0.0071666   91.69722   61.13148   0.0002906   183.9935984   0.0071916   0.0080964   184.2229909   0.0071766   
03246   184.1989083   0.0071817   0.008087   184.2256716   0.0071666   91.9143591   61.2762394   0.0002913   184.430118   0.0071916   0.0080986   184.6613975   0.0071766   
03247   184.6356731   0.0071817   0.0080892   184.6637762   0.0071666   92.1331553   61.4221035   0.0002919   184.8655992   0.0071916   0.0081008   185.0988212   0.0071766   
03248   185.069805   0.0071817   0.0080914   185.0993776   0.0071666   92.3506301   61.5670867   0.0002926   185.3014233   0.0071916   0.008103   185.5367574   0.0071766   
03249   185.4995112   0.0071817   0.0080936   185.5305786   0.0071666   92.5659462   61.7106308   0.0002933   185.7390994   0.0071916   0.0081052   185.9756351   0.0071766   
03250   185.8475793   0.0071823   0.0080959   185.881697   0.0071672   92.7416008   61.8277339   0.0002938   186.0988436   0.0071921   0.0081075   186.3284221   0.0071771   
03251   186.2789473   0.0071823   0.0080981   186.3144693   0.0071672   92.957783   61.9718553   0.0002945   186.5383522   0.0071921   0.0081097   186.7634359   0.0071771   
03252   186.7107675   0.0071823   0.0081003   186.7477795   0.0071673   93.174049   62.1160327   0.0002952   186.9708787   0.0071921   0.0081119   187.19815   0.0071771   
03253   187.1261372   0.0071825   0.0081025   187.1644731   0.0071674   93.3830509   62.2553672   0.0002959   187.1538603   0.0071933   0.0081141   187.4044495   0.0071784   
03254   187.5156875   0.0071828   0.0081047   187.5559248   0.0071677   93.5787498   62.3858332   0.0002965   187.6078846   0.0071933   0.0081163   187.843644   0.0071784   
03255   187.9359711   0.0071828   0.0081069   187.9777495   0.0071677   93.7889692   62.5259795   0.0002971   188.0376712   0.0071933   0.0081185   188.2731072   0.0071784   
03256   188.2115258   0.0071837   0.0081092   188.2626224   0.0071686   93.9308335   62.6205557   0.0002976   188.4532867   0.0071933   0.0081205   188.6898226   0.0071784   
03257   188.6380433   0.0071838   0.0081114   188.6907623   0.0071687   94.1446481   62.7630987   0.0002982   188.8874863   0.0071933   0.0081227   189.1240035   0.0071784   
03258   184.7068426   0.0071877   0.0080956   184.7464308   0.0071726   92.1745257   61.4496838   0.0002921   184.8969303   0.0071945   0.008104   185.1580171   0.0071796   
03259   185.1361313   0.0071877   0.0080978   185.177197   0.0071726   92.3894716   61.5929811   0.0002928   185.3239094   0.0071945   0.0081061   185.5871599   0.0071796   
03260   185.5545501   0.0071877   0.0080998   185.5955663   0.0071726   92.5984043   61.7322695   0.0002934   185.7509435   0.0071945   0.0081082   186.0138184   0.0071796   
03261   185.9860617   0.0071877   0.008102   186.0286872   0.0071726   92.8147125   61.876475   0.0002941   186.1809916   0.0071945   0.0081104   186.445883   0.0071796   
03262   186.4130932   0.0071877   0.0081042   186.4572053   0.0071726   93.0284702   62.0189801   0.0002948   186.6009744   0.0071945   0.0081125   186.8688478   0.0071796   
03263   186.8486783   0.0071877   0.0081063   186.8940791   0.0071726   93.2466544   62.1644363   0.0002955   187.0354542   0.0071945   0.0081147   187.3050483   0.0071796   
03264   187.2857731   0.0071877   0.0081085   187.3324635   0.0071726   93.4655782   62.3103855   0.0002961   187.4708909   0.0071945   0.0081169   187.7423524   0.0071796   
03265   187.7154237   0.0071877   0.0081107   187.7636894   0.0071726   93.6810976   62.454065   0.0002968   187.9031943   0.0071945   0.008119   188.176497   0.0071796   
03266   188.1488368   0.0071877   0.0081129   188.1984985   0.0071726   93.8980972   62.5987315   0.0002975   188.3361213   0.0071945   0.0081212   188.6109333   0.0071796   
03267   188.5746693   0.0071877   0.008115   188.6256786   0.0071726   94.1114052   62.7409368   0.0002982   188.7626039   0.0071945   0.0081233   189.0385597   0.0071796   
03268   189.0096561   0.0071877   0.0081172   189.0618969   0.0071726   94.3291959   62.8861306   0.0002988   189.1986791   0.0071945   0.0081255   189.4761465   0.0071796   
03269   181.700424   0.0072383   0.008131   181.7200068   0.0072231   90.6626897   60.4417931   0.0002874   182.7528025   0.0072408   0.0081394   182.9706825   0.0072258   
03270   182.1298654   0.0072384   0.0081332   182.1517233   0.0072232   90.8782781   60.5855188   0.000288   183.1867297   0.0072408   0.0081416   183.4075838   0.0072258   
03271   182.5572439   0.0072384   0.0081354   182.581368   0.0072232   91.0928707   60.7285805   0.0002887   183.6206191   0.0072408   0.0081437   183.8447368   0.0072258   
03272   182.994298   0.0072384   0.0081376   183.0197523   0.0072232   91.3117943   60.8745295   0.0002894   184.0560115   0.0072408   0.0081459   184.2820408   0.0072258   
03273   183.4301244   0.0072384   0.0081398   183.4570484   0.0072232   91.5301773   61.0201182   0.0002901   184.4913297   0.0072408   0.0081481   184.7194091   0.0072258   
03274   183.8671832   0.0072384   0.008142   183.8954328   0.0072232   91.749101   61.1660673   0.0002908   184.9267259   0.0072408   0.0081503   185.1567132   0.0072258   
03275   184.2921195   0.0072385   0.0081442   184.3227523   0.0072233   91.9624093   61.3082729   0.0002914   185.3619134   0.0072408   0.0081525   185.5947702   0.0072258   
03276   184.7150041   0.0072386   0.0081464   184.7474725   0.0072234   92.1744165   61.449611   0.0002921   185.8066013   0.0072408   0.0081547   186.0278812   0.0072258   
03277   185.1353953   0.0072387   0.0081486   185.1691985   0.0072235   92.3849344   61.5899563   0.0002928   186.2501481   0.0072408   0.0081569   186.4702495   0.0072258   
03278   185.5713596   0.0072387   0.0081508   185.6065075   0.0072235   92.6033195   61.7355463   0.0002934   186.6858486   0.0072408   0.0081591   186.9078618   0.0072258   
03279   185.9387998   0.0072391   0.0081531   185.9770604   0.007224   92.7884127   61.8589418   0.000294   186.6765203   0.0072432   0.0081614   186.9128853   0.0072281   
03280   186.3571962   0.0072393   0.0081553   186.3974272   0.0072241   92.9983248   61.9988832   0.0002947   187.078212   0.0072434   0.0081636   187.3181146   0.0072283   
03281   186.7556513   0.0072395   0.0081576   186.7976745   0.0072243   93.1982413   62.1321609   0.0002953   187.3415746   0.0072443   0.0081659   187.5922964   0.0072293   
03282   187.1919636   0.0072395   0.0081598   187.2353107   0.0072243   93.4167898   62.2778599   0.000296   187.7771978   0.0072443   0.008168   188.0298143   0.0072293   
03283   187.6044581   0.0072397   0.008162   187.6495682   0.0072245   93.6237031   62.4158021   0.0002966   188.1047914   0.0072449   0.0081703   188.3528714   0.0072299   
03284   188.03425   0.0072397   0.0081642   188.0804469   0.0072245   93.8388827   62.5592552   0.0002973   188.5432374   0.0072449   0.0081725   188.7932071   0.0072299   
03285   188.4609802   0.0072398   0.0081664   188.5088303   0.0072246   94.0527674   62.7018449   0.000298   188.982426   0.0072449   0.0081747   189.2326989   0.0072299   
03286   188.8793362   0.0072399   0.0081686   188.9288591   0.0072247   94.2624252   62.8416168   0.0002986   189.3522344   0.0072452   0.0081769   189.6157401   0.0072302   
03287   189.1374038   0.007241   0.008171   189.1893877   0.0072258   94.3926083   62.9284055   0.000299   189.7439058   0.0072456   0.0081793   190.0191372   0.0072306   
03288   189.5316815   0.0072412   0.0081732   189.5850397   0.007226   94.5891234   63.0594156   0.0002997   190.1639761   0.0072457   0.0081815   190.4303837   0.0072307   
03289   183.202105   0.0072854   0.0081855   183.2286303   0.0072701   91.4142485   60.9428323   0.0002897   183.8473302   0.0072896   0.0081939   184.2376926   0.0072745   
03290   183.6378123   0.0072854   0.0081877   183.6657217   0.0072701   91.6325273   61.0883515   0.0002904   184.2831188   0.0072896   0.008196   184.6753818   0.0072745   
03291   184.0748713   0.0072854   0.0081899   184.104106   0.0072701   91.8514514   61.2343009   0.0002911   184.7185055   0.0072896   0.0081982   185.1126859   0.0072745   
03292   184.5076614   0.0072854   0.0081921   184.5384164   0.0072701   92.0683443   61.3788962   0.0002918   185.1551398   0.0072896   0.0082004   185.5512265   0.0072745   
03293   184.9047088   0.0072857   0.0081943   184.9379114   0.0072704   92.2678348   61.5118899   0.0002924   185.6025254   0.0072896   0.0082026   186.0005654   0.0072745   
03294   185.3246248   0.0072858   0.0081966   185.3597581   0.0072705   92.4785068   61.6523379   0.0002931   186.0423464   0.0072896   0.0082049   186.4437494   0.0072745   
03295   185.7616975   0.0072858   0.0081987   185.7981425   0.0072705   92.6974307   61.7982871   0.0002937   186.4777416   0.0072896   0.008207   186.8810535   0.0072745   
03296   186.1361418   0.0072862   0.008201   186.1756288   0.0072709   92.885953   61.9239687   0.0002943   186.6583978   0.007291   0.0082093   187.0558047   0.0072758   
03297   186.5732232   0.0072862   0.0082032   186.6140131   0.0072709   93.1048771   62.069918   0.000295   187.0938165   0.007291   0.0082115   187.493109   0.0072758   
03298   186.9840917   0.0072863   0.0082054   187.0267618   0.0072711   93.3109905   62.207327   0.0002957   187.5383653   0.007291   0.0082137   187.93465   0.0072758   
03299   187.3327085   0.0072869   0.0082078   187.3787801   0.0072716   93.4868071   62.324538   0.0002962   188.0021892   0.007291   0.008216   188.3968489   0.0072758   
03300   187.753195   0.007287   0.00821   187.8007697   0.0072717   93.6975462   62.4650308   0.0002969   188.4428526   0.007291   0.0082182   188.8391639   0.0072758   
03301   188.1725439   0.0072871   0.0082122   188.2216501   0.0072718   93.9076879   62.6051253   0.0002975   188.7786819   0.0072915   0.0082205   189.175234   0.0072763   
03302   188.6071645   0.0072871   0.0082144   188.6575664   0.0072719   94.1253794   62.7502529   0.0002982   189.2139743   0.0072915   0.0082226   189.6122425   0.0072763   
03303   189.0387174   0.0072871   0.0082166   189.0895713   0.0072719   94.3411325   62.8940883   0.0002989   189.6480121   0.0072915   0.0082248   190.047048   0.0072763   
03304   189.4343696   0.0072874   0.0082188   189.4866836   0.0072721   94.5393546   63.0262364   0.0002995   190.0916181   0.0072915   0.008227   190.4921713   0.0072763   
03305   180.4768286   0.0073264   0.0082128   180.517889   0.007311   90.0604815   60.040321   0.0002855   180.124892   0.0073359   0.0082213   180.5005328   0.0073206   
03306   180.9055802   0.0073264   0.0082149   180.9471307   0.007311   90.274927   60.1832847   0.0002862   180.5466944   0.0073359   0.0082234   180.9250573   0.0073206   
03307   181.3373626   0.0073264   0.0082171   181.3803875   0.007311   90.491244   60.327496   0.0002868   180.9717203   0.0073359   0.0082256   181.352511   0.0073206   
03308   181.773054   0.0073264   0.0082193   181.8177718   0.007311   90.7096736   60.4731158   0.0002875   181.4068071   0.0073359   0.0082277   181.7894459   0.0073206   
03309   182.2073402   0.0073264   0.0082215   182.2536797   0.007311   90.9273734   60.6182489   0.0002882   181.8404607   0.0073359   0.0082299   182.2248617   0.0073206   
03310   182.6443742   0.0073264   0.0082236   182.692064   0.007311   91.1462973   60.7641982   0.0002889   182.2758575   0.0073359   0.0082321   182.6621659   0.0073206   
03311   183.0697788   0.0073264   0.0082258   183.1186071   0.007311   91.3593259   60.9062173   0.0002896   182.7008173   0.0073359   0.0082342   183.0884149   0.0073206   
03312   183.5053008   0.0073264   0.008228   183.5552008   0.007311   91.5773786   61.0515858   0.0002902   183.1355793   0.0073359   0.0082364   183.5249408   0.0073206   
03313   183.9423419   0.0073264   0.0082302   183.9935851   0.007311   91.7963023   61.1975349   0.0002909   183.5709822   0.0073359   0.0082386   183.962245   0.0073206   
03314   184.3118877   0.0073264   0.008232   184.36593   0.007311   91.9825741   61.3217161   0.0002915   183.9399176   0.0073359   0.0082404   184.3327771   0.0073206   
03315   184.7408233   0.0073265   0.0082342   184.7958557   0.0073111   92.1972823   61.4648549   0.0002922   184.3727168   0.0073359   0.0082426   184.7675922   0.0073206   
03316   185.0649919   0.0073266   0.0082359   185.1153122   0.0073112   92.3564366   61.5709577   0.0002927   184.7364932   0.0073359   0.0082444   185.1227456   0.0073206   
03317   185.5020416   0.0073266   0.0082381   185.5536965   0.0073112   92.5753605   61.716907   0.0002934   185.1719035   0.0073359   0.0082466   185.5600495   0.0073206   
03318   185.5481246   0.0073275   0.0082393   185.5946599   0.0073121   92.5956512   61.7304341   0.0002934   185.4643195   0.0073359   0.008248   185.8356077   0.0073206   
03319   185.9827894   0.0073275   0.0082415   186.0307113   0.0073121   92.8134345   61.875623   0.0002941   185.8956171   0.0073359   0.0082502   186.2690067   0.0073206   
03320   185.8290758   0.0073311   0.0082444   185.8926645   0.0073157   92.7453173   61.8302115   0.0002939   186.3292764   0.0073359   0.0082524   186.7002481   0.0073206   
03321   186.2575022   0.0073312   0.0082465   186.322242   0.0073158   92.9598138   61.9732092   0.0002946   186.7596803   0.0073359   0.0082545   187.1320097   0.0073206   
03322   186.6918078   0.0073312   0.0082487   186.7578985   0.0073158   93.1773793   62.1182529   0.0002952   187.1951852   0.0073359   0.0082567   187.569547   0.0073206   
03323   187.1225572   0.0073312   0.0082509   187.1896729   0.0073158   93.3929609   62.2619739   0.0002959   187.6223566   0.0073359   0.0082589   187.9931029   0.0073206   
03324   187.5405859   0.0073312   0.008253   187.6092862   0.0073158   93.6024646   62.4016431   0.0002966   188.0215995   0.0073359   0.0082609   188.3970046   0.0073206   
03325   187.9668929   0.0073312   0.0082552   188.0364922   0.0073158   93.8157465   62.543831   0.0002972   188.4510938   0.0073359   0.008263   188.8269404   0.0073206   
03326   188.4026191   0.0073312   0.0082573   188.4737336   0.0073158   94.0341209   62.689414   0.0002979   188.8861556   0.0073359   0.0082652   189.2638456   0.0073206   
03327   188.6563035   0.0073322   0.0082596   188.7269023   0.0073168   94.1607628   62.7738419   0.0002983   189.3481957   0.0073359   0.0082675   189.7267956   0.0073206   
03328   189.0806446   0.0073323   0.0082618   189.1522959   0.0073169   94.3730893   62.9153929   0.000299   189.6790399   0.0073365   0.0082698   190.0684604   0.0073212   
03329   189.1448067   0.0073347   0.0082645   189.2093034   0.0073193   94.4018392   62.9345595   0.0002991   188.7534137   0.0073444   0.008273   189.1000418   0.0073291   
03330   189.5731566   0.0073347   0.0082667   189.6373733   0.0073193   94.6154784   63.0769856   0.0002997   189.1847356   0.0073444   0.0082751   189.5316779   0.0073291   
03331   189.9535999   0.007335   0.0082689   190.0196402   0.0073196   94.806617   63.2044114   0.0003003   189.6216044   0.0073445   0.0082773   189.968974   0.0073292   
03332   179.3538595   0.0074069   0.0082876   179.3760621   0.0073914   89.4906486   59.6604324   0.0002837   178.732136   0.0074181   0.0082963   179.0502249   0.0074027   
03333   179.7908891   0.0074069   0.0082898   179.8144464   0.0073914   89.7095729   59.806382   0.0002844   179.167498   0.0074181   0.0082985   179.4875292   0.0074027   
03334   180.2237322   0.0074069   0.0082919   180.2487405   0.0073914   89.9264   59.9509333   0.0002851   179.5422108   0.0074184   0.0083007   179.8711365   0.007403   
03335   180.6607671   0.0074069   0.0082941   180.6871248   0.0073914   90.1453242   60.0968828   0.0002858   179.977578   0.0074184   0.0083029   180.3084406   0.007403   
03336   181.0966996   0.0074069   0.0082963   181.1244469   0.0073914   90.3637148   60.2424765   0.0002864   180.4138321   0.0074184   0.0083051   180.7451382   0.007403   
03337   181.5292044   0.0074069   0.0082985   181.5585048   0.0073915   90.5805314   60.387021   0.0002871   180.8504779   0.0074184   0.0083072   181.1837906   0.007403   
03338   181.9453265   0.0074071   0.0083007   181.9765752   0.0073916   90.7893792   60.5262528   0.0002878   181.2919444   0.0074184   0.0083095   181.6273798   0.007403   
03339   182.3814538   0.0074071   0.0083029   182.4140691   0.0073916   91.0078702   60.6719135   0.0002885   181.7275862   0.0074184   0.0083116   182.0649798   0.007403   
03340   182.8078838   0.0074071   0.0083051   182.842084   0.0073917   91.2216308   60.8144205   0.0002891   182.1090319   0.0074186   0.0083138   182.4500696   0.0074033   
03341   183.235656   0.0074072   0.0083073   183.2714962   0.0073917   91.4361545   60.9574363   0.0002898   182.5473224   0.0074186   0.008316   182.8896841   0.0074033   
03342   183.4394016   0.0074087   0.0083099   183.4811351   0.0073932   91.5402558   61.0268372   0.0002901   183.0320222   0.0074188   0.0083186   183.3517384   0.0074034   
03343   183.8738327   0.0074087   0.0083121   183.9168896   0.0073932   91.7578592   61.1719061   0.0002908   183.4682144   0.0074188   0.0083208   183.7898493   0.0074034   
03344   184.2997944   0.0074088   0.0083143   184.3444312   0.0073933   91.971444   61.314296   0.0002915   183.9068379   0.0074188   0.0083229   184.230547   0.0074034   
03345   184.7332229   0.0074088   0.0083165   184.779233   0.0073933   92.1885567   61.4590378   0.0002922   184.3433101   0.0074188   0.0083251   184.6689566   0.0074034   
03346   185.1547625   0.0074089   0.0083187   185.2021691   0.0073934   92.3997203   61.5998136   0.0002928   184.7330282   0.007419   0.0083273   185.0678031   0.0074036   
03347   185.5873226   0.0074089   0.0083209   185.6362321   0.0073935   92.6164979   61.744332   0.0002935   185.1697119   0.007419   0.0083295   185.5064486   0.0074036   
03348   186.0208266   0.0074089   0.0083231   186.0711062   0.0073935   92.8336397   61.8890932   0.0002942   185.606227   0.007419   0.0083317   185.9448217   0.0074036   
03349   186.4346164   0.0074091   0.0083253   186.4869572   0.0073936   93.0413321   62.0275547   0.0002948   186.0483645   0.007419   0.0083339   186.3888935   0.0074036   
03350   186.8695888   0.0074091   0.0083275   186.9232903   0.0073936   93.2592139   62.1728093   0.0002955   186.4595791   0.0074191   0.0083361   186.8030352   0.0074038   
03351   187.2954532   0.0074092   0.0083297   187.350674   0.0073937   93.4726812   62.3151208   0.0002962   186.7838816   0.0074197   0.0083383   187.1450225   0.0074043   
03352   187.7274403   0.0074092   0.0083319   187.7840374   0.0073937   93.6891328   62.4594218   0.0002968   187.2208563   0.0074197   0.0083405   187.5838943   0.0074043   
03353   188.1395669   0.0074094   0.0083341   188.1978913   0.0073939   93.8957792   62.5971861   0.0002975   187.6633073   0.0074197   0.0083427   188.0290299   0.0074043   
03354   188.560843   0.0074095   0.0083363   188.6207891   0.007394   94.1069557   62.7379704   0.0002982   188.1025636   0.0074197   0.0083449   188.4702723   0.0074043   
03355   188.9790647   0.0074096   0.0083385   189.0410949   0.0073941   94.3166989   62.8777992   0.0002988   188.539064   0.0074197   0.0083471   188.9035184   0.0074043   
03356   189.3766188   0.0074098   0.0083408   189.4409144   0.0073944   94.516363   63.0109087   0.0002994   188.9804393   0.0074197   0.0083493   189.3494335   0.0074043   
03357   189.7513906   0.0074102   0.008343   189.8180479   0.0073947   94.7042335   63.1361557   0.0003   189.4309005   0.0074197   0.0083516   189.8002334   0.0074043   
03358   190.0795354   0.0074109   0.0083454   190.148423   0.0073954   94.869416   63.2462774   0.0003005   189.8480418   0.0074199   0.0083539   190.2258597   0.0074045   
03359   190.4278665   0.0074114   0.0083476   190.4992161   0.0073959   95.0452421   63.3634947   0.0003011   190.1990391   0.0074204   0.0083561   190.5849042   0.007405   
03360   190.7522933   0.0074119   0.0083498   190.825611   0.0073964   95.2070247   63.4713498   0.0003016   190.5286174   0.0074209   0.0083583   190.9138374   0.0074055   
03361   191.1377744   0.0074122   0.008352   191.2131703   0.0073968   95.4005293   63.6003528   0.0003022   190.975304   0.0074209   0.0083606   191.3614755   0.0074055   
03362   191.4680874   0.0074129   0.0083543   191.5456556   0.0073974   95.5666946   63.7111297   0.0003027   191.2130442   0.0074219   0.0083628   191.6214092   0.0074066   
03363   191.7309752   0.0074139   0.0083567   191.8109723   0.0073984   95.6987604   63.7991736   0.0003032   191.594974   0.0074224   0.0083652   192.0126202   0.007407   
03364   191.9837783   0.0074147   0.0083587   192.0653009   0.0073992   95.8262054   63.8841369   0.0003035   192.0103114   0.0074224   0.0083673   192.4196347   0.007407   
03365   181.9953578   0.007483   0.0083769   182.0369899   0.0074674   90.8183693   60.5455795   0.0002879   182.0151466   0.007491   0.0083856   182.3200246   0.0074755   
03366   182.4310046   0.007483   0.0083791   182.4740247   0.0074674   91.0365753   60.6910502   0.0002886   182.450981   0.007491   0.0083878   182.7576655   0.0074755   
03367   182.8644084   0.007483   0.0083813   182.9088539   0.0074675   91.2536262   60.8357508   0.0002892   182.8875245   0.007491   0.00839   183.1960233   0.0074755   
03368   183.2774044   0.0074832   0.0083835   183.3238697   0.0074676   91.4607007   60.9738005   0.0002899   183.3303911   0.007491   0.0083922   183.6402759   0.0074755   
03369   183.7121141   0.0074832   0.0083857   183.7600013   0.0074676   91.6784749   61.1189833   0.0002906   183.7665567   0.007491   0.0083944   184.0781301   0.0074755   
03370   184.1385192   0.0074832   0.0083879   184.1881949   0.0074677   91.8923422   61.2615615   0.0002912   184.2053118   0.007491   0.0083966   184.5178041   0.0074755   
03371   184.57302   0.0074833   0.0083901   184.6240877   0.0074677   92.1100529   61.406702   0.0002919   184.6415333   0.007491   0.0083988   184.9557812   0.0074755   
03372   185.0043742   0.0074833   0.0083923   185.0569727   0.0074677   92.3262836   61.5508557   0.0002926   185.0786658   0.007491   0.0084009   185.3947445   0.0074755   
03373   185.4261358   0.0074834   0.0083945   185.4805175   0.0074678   92.5376825   61.6917883   0.0002933   185.5186056   0.007491   0.0084032   185.8365494   0.0074755   
03374   185.8623125   0.0074834   0.0083967   185.9180494   0.0074678   92.7561652   61.8374435   0.0002939   185.9542523   0.007491   0.0084053   186.274174   0.0074755   
03375   186.2766391   0.0074835   0.0083989   186.334399   0.007468   92.9640169   61.9760112   0.0002946   186.3966817   0.007491   0.0084076   186.7170054   0.0074755   
03376   186.7020106   0.0074836   0.0084011   186.7613255   0.0074681   93.1771805   62.1181203   0.0002953   186.8394757   0.007491   0.0084098   187.1535444   0.0074755   
03377   187.1319957   0.0074837   0.0084033   187.1927377   0.0074681   93.3927031   62.2618021   0.0002959   187.276807   0.007491   0.0084119   187.5931231   0.0074755   
03378   187.569095   0.0074837   0.0084055   187.6311221   0.0074681   93.6116272   62.4077515   0.0002966   187.7122378   0.007491   0.0084141   188.0304271   0.0074755   
03379   183.8896412   0.0075105   0.008414   183.9491623   0.007495   91.7727544   61.1818363   0.0002909   183.4977519   0.0075207   0.0084227   183.7825565   0.0075052   
03380   184.3267448   0.0075105   0.0084161   184.3875466   0.007495   91.9916782   61.3277854   0.0002915   183.9331837   0.0075207   0.0084248   184.2198606   0.0075052   
03381   184.7400742   0.0075107   0.0084184   184.8029411   0.0074951   92.1990191   61.4660127   0.0002922   184.2594263   0.0075212   0.0084271   184.5530255   0.0075058   
03382   185.1751946   0.0075107   0.0084206   185.2394262   0.0074951   92.4170459   61.6113639   0.0002929   184.6945735   0.0075212   0.0084292   184.9921683   0.0075058   
03383   185.6123064   0.0075107   0.0084228   185.6778105   0.0074951   92.6359699   61.7573133   0.0002936   185.1300176   0.0075212   0.0084314   185.4294722   0.0075058   
03384   186.0494202   0.0075107   0.0084249   186.1161948   0.0074951   92.8548937   61.9032625   0.0002943   185.5654634   0.0075212   0.0084336   185.8667761   0.0075058   
03385   186.4706178   0.0075108   0.0084272   186.5391075   0.0074952   93.0658451   62.0438967   0.0002949   186.0055537   0.0075212   0.0084358   186.3083537   0.0075058   
03386   186.9077367   0.0075108   0.0084293   186.9774919   0.0074952   93.2847691   62.1898461   0.0002956   186.4410044   0.0075212   0.008438   186.7456575   0.0075058   
03387   187.3448576   0.0075108   0.0084315   187.4158763   0.0074952   93.5036933   62.3357956   0.0002963   186.8764567   0.0075212   0.0084402   187.1829618   0.0075058   
03388   187.7783724   0.0075108   0.0084337   187.850773   0.0074952   93.7208038   62.4805358   0.000297   187.2709238   0.0075214   0.0084424   187.5851681   0.0075059   
03389   188.2071164   0.0075109   0.0084359   188.2809045   0.0074953   93.9354651   62.6236434   0.0002976   187.708956   0.0075214   0.0084446   188.0249278   0.0075059   
03390   188.633366   0.007511   0.0084381   188.708666   0.0074954   94.1492634   62.7661756   0.0002983   188.0957351   0.0075217   0.0084468   188.4192036   0.0075062   
03391   189.026241   0.0075112   0.0084404   189.1038149   0.0074957   94.3467444   62.8978296   0.0002989   188.5442198   0.0075217   0.008449   188.868488   0.0075062   
03392   189.4598072   0.0075113   0.0084426   189.5391514   0.0074957   94.5641352   63.0427568   0.0002996   188.9788214   0.0075217   0.0084512   189.3053488   0.0075062   
03393   189.884415   0.0075113   0.0084448   189.9654532   0.0074957   94.7769084   63.1846056   0.0003003   189.3622817   0.007522   0.0084534   189.691535   0.0075065   
03394   190.3215539   0.0075113   0.008447   190.4038376   0.0074957   94.9958325   63.330555   0.000301   189.7977575   0.007522   0.0084556   190.1288391   0.0075065   
03395   190.7561004   0.0075114   0.0084492   190.8396315   0.0074958   95.2134482   63.4756321   0.0003016   190.2328528   0.007522   0.0084577   190.5659289   0.0075065   
03396   191.1833746   0.0075114   0.0084514   191.2687673   0.0074958   95.4278154   63.6185436   0.0003023   190.6230516   0.0075222   0.0084599   190.9640779   0.0075067   
03397   191.5511867   0.0075118   0.0084537   191.6402568   0.0074963   95.6136361   63.7424241   0.0003029   191.0689464   0.0075222   0.0084622   191.4155571   0.0075067   
03398   191.8526169   0.0075127   0.008456   191.9445468   0.0074971   95.7655617   63.8437078   0.0003034   191.2255975   0.0075237   0.0084645   191.6026419   0.0075082   
03399   192.2161483   0.0075132   0.0084583   192.3101646   0.0074976   95.9481482   63.9654321   0.0003039   191.6269435   0.007524   0.0084668   192.0040401   0.0075085   
03400   183.6744833   0.0075697   0.0084721   183.7984626   0.007554   91.6985443   61.1323629   0.0002906   183.2255862   0.0075836   0.0084842   183.5574198   0.007568   
03401   184.1115949   0.0075697   0.0084742   184.2368469   0.007554   91.9174682   61.2783121   0.0002913   183.6610057   0.0075836   0.0084864   183.994724   0.007568   
03402   184.5487085   0.0075697   0.0084764   184.6752312   0.007554   92.1363923   61.4242615   0.000292   184.0964269   0.0075836   0.0084886   184.4320283   0.007568   
03403   184.9816238   0.0075698   0.0084786   185.1094653   0.0075541   92.3533084   61.5688722   0.0002927   184.4566398   0.007584   0.0084908   184.8022047   0.0075684   
03404   185.4159024   0.0075698   0.0084808   185.5440455   0.0075541   92.5703336   61.7135558   0.0002933   184.8911575   0.007584   0.008493   185.2385544   0.0075684   
03405   185.8530225   0.0075698   0.008483   185.9824299   0.0075541   92.7892578   61.8595052   0.000294   185.3265854   0.007584   0.0084951   185.6758586   0.0075684   
03406   186.2886446   0.0075698   0.0084852   186.4194189   0.0075541   93.0074729   62.004982   0.0002947   185.7619092   0.007584   0.0084973   186.113215   0.0075684   
03407   186.7252088   0.0075698   0.0084874   186.8572805   0.0075541   93.2261533   62.1507689   0.0002954   186.1977307   0.007584   0.0084995   186.550974   0.0075684   
03408   187.162335   0.0075698   0.0084896   187.2956648   0.0075541   93.4450772   62.2967182   0.0002961   186.633164   0.007584   0.0085017   186.988278   0.0075684   
03409   187.5911575   0.0075698   0.0084918   187.7261944   0.0075541   93.6601117   62.4400744   0.0002968   187.0678855   0.007584   0.0085039   187.4256878   0.0075684   
03410   188.026578   0.0075698   0.0084939   188.1626149   0.0075541   93.8779974   62.5853316   0.0002974   187.5024502   0.007584   0.008506   187.8619261   0.0075684   
03411   188.4582828   0.0075698   0.0084961   188.595686   0.0075542   94.0943231   62.7295487   0.0002981   187.9412299   0.007584   0.0085082   188.3010122   0.0075684   
03412   188.8903601   0.0075699   0.0084983   189.0287644   0.0075542   94.3106749   62.8737833   0.0002988   188.3764716   0.007584   0.0085104   188.7363469   0.0075684   
03413   189.3231186   0.0075699   0.0085005   189.46283   0.0075542   94.5275465   63.0183643   0.0002995   188.7844454   0.0075841   0.0085126   189.1428405   0.0075686   
03414   189.7391778   0.00757   0.0085027   189.8789534   0.0075543   94.735317   63.156878   0.0003001   189.2269438   0.0075841   0.0085148   189.5851428   0.0075686   
03415   190.114952   0.0075704   0.008505   190.2565285   0.0075547   94.9237747   63.2825165   0.0003007   189.612581   0.0075846   0.0085172   189.9798237   0.007569   
03416   190.5431881   0.0075705   0.0085072   190.6860359   0.0075548   95.1379971   63.4253314   0.0003014   190.0509728   0.0075846   0.0085194   190.4204088   0.007569   
03417   190.9563271   0.0075705   0.0085093   191.098078   0.0075548   95.3443133   63.5628755   0.000302   190.48225   0.0075846   0.0085216   190.8499277   0.007569   
03418   191.2236372   0.0075707   0.0085108   191.3556545   0.007555   95.4725054   63.648337   0.0003024   190.8683533   0.0075847   0.0085235   191.2097403   0.0075691   
03419   191.654269   0.0075707   0.008513   191.7875964   0.007555   95.6882387   63.7921591   0.0003031   191.3052898   0.0075847   0.0085257   191.648403   0.0075691   
03420   182.065738   0.0076366   0.0085306   182.1381494   0.0076208   90.8680702   60.5787135   0.000288   181.8521495   0.0076501   0.0085434   182.1047856   0.0076344   
03421   182.4813021   0.0076367   0.0085328   182.5557929   0.0076209   91.0766068   60.7177379   0.0002887   182.2937089   0.0076501   0.0085457   182.5484186   0.0076344   
03422   182.9174056   0.0076367   0.008535   182.9932892   0.0076209   91.2950858   60.8633906   0.0002894   182.7293224   0.0076501   0.0085478   182.9859975   0.0076344   
03423   183.3544438   0.0076367   0.0085372   183.4316736   0.0076209   91.5140101   61.0093401   0.00029   183.1646759   0.0076501   0.00855   183.4233016   0.0076344   
03424   183.7914843   0.0076367   0.0085393   183.8700579   0.0076209   91.7329339   61.1552892   0.0002907   183.6000317   0.0076501   0.0085522   183.8606059   0.0076344   
03425   184.2285272   0.0076367   0.0085415   184.3084422   0.0076209   91.9518582   61.3012388   0.0002914   184.0353895   0.0076501   0.0085544   184.2979099   0.0076344   
03426   184.6593786   0.0076367   0.0085437   184.7409417   0.0076209   92.1678268   61.4452178   0.0002921   184.4731601   0.0076501   0.0085566   184.7357126   0.0076344   
03427   185.087062   0.0076368   0.0085459   185.1703031   0.007621   92.3822409   61.5881606   0.0002928   184.9112931   0.0076501   0.0085588   185.1757333   0.0076344   
03428   185.513533   0.0076369   0.0085481   185.5984922   0.0076211   92.5960224   61.7306816   0.0002934   185.3498698   0.0076501   0.008561   185.6160586   0.0076344   
03429   185.9444749   0.0076369   0.0085503   186.0310136   0.0076211   92.8120255   61.8746837   0.0002941   185.7870395   0.0076501   0.0085632   186.055126   0.0076344   
03430   186.3815327   0.0076369   0.0085525   186.4693979   0.0076211   93.0309495   62.020633   0.0002948   186.2224095   0.0076501   0.0085653   186.4924301   0.0076344   
03431   186.8125361   0.0076369   0.0085547   186.9019083   0.0076211   93.2469164   62.1646109   0.0002955   186.6592307   0.0076501   0.0085675   186.931662   0.0076344   
03432   187.2495988   0.0076369   0.0085569   187.3402927   0.0076211   93.4658406   62.3105604   0.0002962   187.0946056   0.0076501   0.0085697   187.3689659   0.0076344   
03433   187.5656267   0.0076377   0.0085593   187.6590917   0.0076219   93.624818   62.4165453   0.0002967   187.5339798   0.0076502   0.0085721   187.8145068   0.0076345   
03434   187.9976251   0.0076377   0.0085615   188.0924202   0.007622   93.841242   62.560828   0.0002973   187.9709706   0.0076502   0.0085743   188.2533247   0.0076345   
03435   188.412667   0.0076379   0.0085637   188.5092577   0.0076221   94.0494534   62.6996356   0.000298   188.4129048   0.0076502   0.0085765   188.6972221   0.0076345   
03436   188.848845   0.0076379   0.0085659   188.9467807   0.0076221   94.2679398   62.8452932   0.0002987   188.848555   0.0076502   0.0085787   189.1347846   0.0076345   
03437   189.2676454   0.007638   0.0085681   189.3667945   0.0076222   94.4776298   62.9850866   0.0002993   189.2897258   0.0076502   0.0085809   189.5775429   0.0076345   
03438   189.7019557   0.007638   0.0085703   189.8024883   0.0076222   94.6952125   63.1301417   0.0003   189.7269892   0.0076502   0.0085831   190.0137519   0.0076345   
03439   190.0307944   0.0076387   0.0085726   190.1334189   0.0076229   94.8602185   63.2401457   0.0003005   190.1938866   0.0076502   0.0085854   190.4819591   0.0076345   
03440   182.7507826   0.0076891   0.0085866   182.843271   0.0076733   91.2189416   60.8126277   0.0002891   182.8838606   0.0077008   0.0085995   183.2105768   0.007685   
03441   183.1878611   0.0076891   0.0085888   183.2816553   0.0076733   91.4378656   60.9585771   0.0002898   183.3192677   0.0077008   0.0086017   183.6478811   0.007685   
03442   183.624942   0.0076891   0.008591   183.7200397   0.0076733   91.6567894   61.1045263   0.0002905   183.754677   0.0077008   0.0086039   184.085185   0.007685   
03443   184.060052   0.0076891   0.0085932   184.156521   0.0076733   91.8747639   61.2498426   0.0002912   184.190648   0.0077008   0.008606   184.5230974   0.007685   
03444   184.4971374   0.0076891   0.0085954   184.5949054   0.0076733   92.0936877   61.3957918   0.0002919   184.6260615   0.0077008   0.0086082   184.9604015   0.007685   
03445   184.9292625   0.0076892   0.0085976   185.0285196   0.0076733   92.3102141   61.5401427   0.0002925   185.0629047   0.0077008   0.0086104   185.3992   0.007685   
03446   185.3604152   0.0076892   0.0085998   185.4611836   0.0076734   92.5263175   61.6842117   0.0002932   185.5000877   0.0077008   0.0086126   185.8382708   0.007685   
03447   185.7975079   0.0076892   0.008602   185.899568   0.0076734   92.7452415   61.830161   0.0002939   185.9355066   0.0077008   0.0086148   186.2755749   0.007685   
03448   186.2213777   0.0076893   0.0086042   186.3251414   0.0076735   92.9577303   61.9718202   0.0002946   186.2742766   0.0077013   0.008617   186.6185481   0.0076855   
03449   186.6550184   0.0076893   0.0086064   186.7601633   0.0076735   93.1749678   62.1166452   0.0002952   186.7107467   0.0077013   0.0086192   187.0568727   0.0076855   
03450   187.0921187   0.0076893   0.0086086   187.1985477   0.0076735   93.393892   62.2625947   0.0002959   187.146172   0.0077013   0.0086214   187.4941765   0.0076855   
03451   187.5265778   0.0076893   0.0086107   187.6343746   0.0076735   93.6115411   62.4076941   0.0002966   187.5795854   0.0077013   0.0086235   187.9240486   0.0076856   
03452   187.9623223   0.0076893   0.0086129   188.0714574   0.0076735   93.8298158   62.5532106   0.0002973   188.0154164   0.0077013   0.0086257   188.3617413   0.0076856   
03453   188.399429   0.0076893   0.0086151   188.5098417   0.0076735   94.0487399   62.6991599   0.000298   188.4508491   0.0077013   0.0086279   188.799045   0.0076856   
03454   188.8350704   0.0076894   0.0086173   188.946797   0.0076735   94.2669499   62.8446333   0.0002987   188.8843827   0.0077013   0.0086301   189.2300832   0.0076856   
03455   189.1923092   0.0076894   0.0086191   189.2987068   0.0076735   94.441542   62.961028   0.0002992   189.2799259   0.0077013   0.0086321   189.616859   0.0076856   
03456   189.6272385   0.0076894   0.0086213   189.7349754   0.0076736   94.6594093   63.1062729   0.0002999   189.7159914   0.0077013   0.0086342   190.0548321   0.0076856   
03457   190.0545519   0.0076894   0.0086235   190.1635459   0.0076736   94.8734318   63.2489545   0.0003006   190.152898   0.0077013   0.0086364   190.4932553   0.0076856   
03458   190.4872665   0.0076895   0.0086257   190.5976419   0.0076736   95.0902704   63.3935136   0.0003012   190.5879389   0.0077013   0.0086386   190.9301087   0.0076856   
03459   190.9213777   0.0076895   0.0086279   191.033481   0.0076736   95.3079414   63.5386276   0.0003019   191.0231553   0.0077013   0.0086408   191.3671637   0.0076856   
03460   191.3254937   0.0076896   0.00863   191.4383131   0.0076738   95.5107607   63.6738405   0.0003026   191.3892028   0.0077016   0.008643   191.7461117   0.0076859   
03461   191.7177716   0.0076898   0.0086322   191.8321044   0.007674   95.70794   63.8052934   0.0003032   191.8301586   0.0077016   0.0086452   192.1866737   0.0076859   
03462   192.0938309   0.0076899   0.0086342   192.2102009   0.0076741   95.8973125   63.9315417   0.0003038   192.0464801   0.0077025   0.0086472   192.4303664   0.0076868   
03463   186.9510262   0.0077262   0.0086447   187.0574518   0.0077103   93.3228726   62.2152484   0.0002957   186.3273594   0.0077417   0.0086576   186.6550751   0.0077259   
03464   187.3835114   0.0077262   0.0086469   187.4913741   0.0077103   93.5395493   62.3596995   0.0002964   186.7641727   0.0077417   0.0086598   187.0937241   0.0077259   
03465   187.8206216   0.0077262   0.0086491   187.9297585   0.0077103   93.7584734   62.5056489   0.0002971   187.1996161   0.0077417   0.008662   187.5310283   0.0077259   
03466   188.253532   0.0077263   0.0086513   188.3640224   0.0077104   93.9753208   62.6502139   0.0002978   187.6363118   0.0077417   0.0086642   187.9696391   0.0077259   
03467   188.6880048   0.0077263   0.0086535   188.7998097   0.0077104   94.1929497   62.7952998   0.0002985   188.0725553   0.0077417   0.0086664   188.4077601   0.0077259   
03468   189.1215486   0.0077263   0.0086557   189.2347613   0.0077104   94.4101752   62.9401168   0.0002991   188.5091873   0.0077417   0.0086686   188.8459532   0.0077259   
03469   189.5397466   0.0077264   0.0086579   189.654625   0.0077105   94.619809   63.0798727   0.0002998   188.9503176   0.0077417   0.0086708   189.2889903   0.0077259   
03470   189.9650735   0.0077265   0.0086601   190.0814743   0.0077106   94.8330004   63.2220003   0.0003005   189.3892911   0.0077417   0.008673   189.7298006   0.0077259   
03471   190.4021977   0.0077265   0.0086623   190.5198586   0.0077106   95.0519243   63.3679495   0.0003011   189.8247452   0.0077417   0.0086752   190.1671045   0.0077259   
03472   190.830213   0.0077266   0.0086645   190.9494538   0.0077107   95.2664893   63.5109929   0.0003018   190.2626368   0.0077417   0.0086773   190.6072831   0.0077259   
03473   191.2523964   0.0077266   0.0086667   191.3732429   0.0077108   95.4781301   63.6520867   0.0003025   190.6661879   0.0077419   0.0086796   191.0134755   0.0077261   
03474   191.6871677   0.0077267   0.0086689   191.8093213   0.0077108   95.69591   63.7972734   0.0003032   191.102325   0.0077419   0.0086817   191.4514882   0.0077261   
03475   192.1134616   0.0077267   0.0086711   192.2371706   0.0077108   95.9095992   63.9397328   0.0003038   191.5401681   0.0077419   0.0086839   191.8911581   0.0077261   
03476   191.7561982   0.0077317   0.0086743   191.9007636   0.0077158   95.7420406   63.8280271   0.0003033   191.4959841   0.0077453   0.0086873   191.9326596   0.0077295   
03477   192.1898275   0.0077318   0.0086765   192.3348516   0.0077159   95.9589339   63.9726226   0.000304   191.9315771   0.0077453   0.0086895   192.369592   0.0077295   
03478   192.5406448   0.0077323   0.0086788   192.6960646   0.0077164   96.1398252   64.0932168   0.0003045   192.0900023   0.0077471   0.0086921   192.5747623   0.0077313   
03479   192.8904329   0.0077328   0.0086811   193.047406   0.0077169   96.315423   64.210282   0.0003051   192.5555853   0.0077471   0.0086945   193.0402047   0.0077313   
03480   193.0632719   0.0077345   0.0086836   193.2230546   0.0077186   96.4031298   64.2687532   0.0003054   192.8444678   0.0077483   0.008697   193.2681098   0.0077325   
03481   192.6920236   0.0077398   0.0086871   192.8485727   0.0077239   96.2161863   64.1441242   0.0003048   192.361908   0.0077542   0.0087004   192.7530547   0.0077385   
03482   192.9759688   0.0077408   0.0086895   193.136711   0.0077249   96.3603302   64.2402202   0.0003052   192.8325832   0.0077542   0.0087028   193.2249541   0.0077385   
03483   193.40478   0.0077408   0.0086917   193.5668287   0.0077249   96.5750989   64.3833993   0.0003059   193.2728927   0.0077542   0.008705   193.6630257   0.0077385   
03484   193.779222   0.0077412   0.0086939   193.9437018   0.0077253   96.7633814   64.5089209   0.0003065   193.6766791   0.0077545   0.0087073   194.0613915   0.0077387   
03485   184.473936   0.0077456   0.0086517   184.5891565   0.0077297   92.0925348   61.3950232   0.0002919   184.5590135   0.0077545   0.0086616   184.9085419   0.0077387   
03486   184.9086541   0.0077456   0.0086539   185.0252294   0.0077297   92.3103003   61.5402002   0.0002926   184.9915562   0.0077545   0.0086638   185.3431561   0.0077387   
03487   185.3423712   0.0077456   0.008656   185.460306   0.0077297   92.5275615   61.685041   0.0002932   185.4231272   0.0077545   0.008666   185.7768134   0.0077387   
03488   185.7794973   0.0077456   0.0086582   185.8986904   0.0077297   92.7464855   61.8309903   0.0002939   185.8585654   0.0077545   0.0086681   186.2141173   0.0077387   
03489   186.2130721   0.0077456   0.0086604   186.3338782   0.0077297   92.9638464   61.9758976   0.0002946   186.2929276   0.0077545   0.0086703   186.6503704   0.0077387   
03490   186.6494488   0.0077456   0.0086626   186.7715299   0.0077297   93.1823918   62.1215945   0.0002953   186.7275328   0.0077545   0.0086725   187.0868823   0.0077387   
03491   187.0865809   0.0077456   0.0086648   187.2099143   0.0077297   93.4013155   62.2675437   0.000296   187.1629762   0.0077545   0.0086747   187.5241863   0.0077387   
03492   187.5237148   0.0077456   0.008667   187.6482986   0.0077297   93.6202398   62.4134932   0.0002967   187.5984214   0.0077545   0.0086769   187.9614905   0.0077387   
03493   187.9353918   0.0077456   0.008669   188.0601598   0.0077297   93.8258711   62.5505807   0.0002973   188.0157317   0.0077545   0.0086789   188.3778275   0.0077387   
03494   188.3725291   0.0077456   0.0086712   188.4985441   0.0077297   94.044795   62.69653   0.000298   188.4511803   0.0077545   0.0086811   188.8151315   0.0077387   
03495   188.8076898   0.0077456   0.0086734   188.9348613   0.0077297   94.2626753   62.8417835   0.0002987   188.8869489   0.0077545   0.0086833   189.2519697   0.0077387   
03496   189.242788   0.0077456   0.0086756   189.3712678   0.0077297   94.4805962   62.9870642   0.0002994   189.3200146   0.0077545   0.0086855   189.6870304   0.0077387   
03497   189.678578   0.0077456   0.0086778   189.8082611   0.0077297   94.6988352   63.1325568   0.0003   189.7542712   0.0077545   0.0086877   190.1230704   0.0077387   
03498   190.1129433   0.0077456   0.00868   190.2439575   0.0077297   94.9164476   63.2776317   0.0003007   190.1865005   0.0077545   0.0086898   190.5573458   0.0077387   
03499   190.5215499   0.0077456   0.008682   190.6541991   0.0077297   95.1214658   63.4143105   0.0003014   190.592301   0.0077545   0.0086919   190.9658171   0.0077387   
03500   190.95574   0.0077456   0.0086842   191.0896626   0.0077297   95.3389756   63.5593171   0.000302   191.024701   0.0077545   0.008694   191.4001371   0.0077387   
03501   191.2893317   0.0077457   0.0086859   191.4260114   0.0077297   95.5068398   63.6712265   0.0003026   191.3541113   0.0077545   0.0086957   191.7339493   0.0077387   
03502   191.7176879   0.0077457   0.008688   191.8565702   0.0077298   95.7218566   63.8145711   0.0003032   191.7851216   0.0077545   0.0086978   192.1668859   0.0077387   
03503   192.141935   0.0077457   0.0086902   192.2816238   0.0077298   95.9342569   63.9561713   0.0003039   192.2090552   0.0077545   0.0087   192.591801   0.0077387   
03504   192.5512519   0.0077457   0.0086922   192.6931863   0.0077298   96.1398068   64.0932045   0.0003045   192.6108798   0.0077545   0.008702   192.9976856   0.0077387   
03505   192.9852294   0.0077457   0.0086944   193.1283943   0.0077298   96.3571316   64.2380877   0.0003052   193.0454113   0.0077545   0.0087042   193.4341504   0.0077387   
03506   193.4195346   0.0077457   0.0086966   193.5639297   0.0077298   96.5746553   64.3831036   0.0003059   193.4792089   0.0077545   0.0087063   193.8698951   0.0077387   
03507   193.8298901   0.0077457   0.0086987   193.9753506   0.0077298   96.7800627   64.5200418   0.0003066   193.8945536   0.0077545   0.0087084   194.2841065   0.0077387   
03508   194.1659873   0.0077464   0.008701   194.3137336   0.0077304   96.9494078   64.6329386   0.0003071   194.2765231   0.0077549   0.0087107   194.6671599   0.0077391   
03509   184.8696874   0.0078101   0.008718   184.972478   0.0077941   92.2843232   61.5228821   0.0002925   184.4363396   0.0078218   0.008728   184.7236766   0.0078059   
03510   185.3067778   0.0078101   0.0087202   185.4108623   0.0077941   92.5032469   61.6688313   0.0002932   184.8717201   0.0078218   0.0087302   185.1609808   0.0078059   
03511   185.7438704   0.0078101   0.0087224   185.8492467   0.0077941   92.722171   61.8147806   0.0002939   185.307103   0.0078218   0.0087323   185.598285   0.0078059   
03512   186.1787884   0.0078101   0.0087246   186.2855059   0.0077941   92.9400202   61.9600135   0.0002945   185.7431159   0.0078218   0.0087345   186.0362296   0.0078059   
03513   186.6158852   0.0078101   0.0087268   186.7238903   0.0077941   93.1589444   62.1059629   0.0002952   186.1785032   0.0078218   0.0087367   186.4735336   0.0078059   
03514   187.0418141   0.0078102   0.008729   187.1513294   0.0077942   93.3723117   62.2482078   0.0002959   186.5402875   0.0078221   0.0087389   186.8438197   0.0078062   
03515   187.4706226   0.0078103   0.0087312   187.5816168   0.0077943   93.5873781   62.3915854   0.0002966   186.9423987   0.0078223   0.0087411   187.2472862   0.0078064   
03516   187.8860913   0.0078104   0.0087334   187.9987707   0.0077944   93.7957339   62.5304893   0.0002972   187.3834718   0.0078223   0.0087433   187.6918028   0.0078064   
03517   188.2958844   0.0078106   0.0087357   188.4103531   0.0077946   94.0015954   62.6677303   0.0002979   187.8271308   0.0078223   0.0087455   188.1368271   0.0078064   
03518   188.7329949   0.0078106   0.0087378   188.8487374   0.0077946   94.2205193   62.8136795   0.0002985   188.2625367   0.0078223   0.0087477   188.5741314   0.0078064   
03519   189.1691598   0.0078106   0.00874   189.2862004   0.0077946   94.4389886   62.9593257   0.0002992   188.6986127   0.0078223   0.0087499   189.0110282   0.0078064   
03520   189.6055678   0.0078106   0.0087422   189.7238915   0.0077946   94.6575903   63.1050602   0.0002999   189.1002601   0.0078225   0.0087521   189.4202553   0.0078066   
03521   190.0336105   0.0078107   0.0087444   190.1534274   0.0077946   94.87215   63.2481   0.0003006   189.4781685   0.0078228   0.0087543   189.7939867   0.0078069   
03522   190.4633059   0.0078107   0.0087466   190.5845823   0.0077947   95.08743   63.39162   0.0003013   189.9157718   0.0078228   0.0087565   190.2331281   0.0078069   
03523   190.8663923   0.0078109   0.0087489   190.9892917   0.0077949   95.2894431   63.5262954   0.0003019   190.3115981   0.007823   0.0087587   190.641095   0.0078071   
03524   191.2722069   0.0078111   0.0087511   191.3970543   0.0077951   95.4927338   63.6618226   0.0003025   190.5514585   0.007824   0.0087609   190.909864   0.0078081   
03525   191.6677648   0.0078114   0.0087534   191.794878   0.0077954   95.6914137   63.7942758   0.0003031   190.9891052   0.0078241   0.0087632   191.3364347   0.0078082   
03526   192.0696377   0.0078116   0.0087556   192.1986393   0.0077956   95.8929656   63.9286438   0.0003038   191.4358793   0.0078241   0.0087654   191.7832574   0.0078082   
03527   192.5021825   0.0078116   0.0087578   192.6325316   0.0077956   96.1096346   64.0730897   0.0003045   191.8734176   0.0078241   0.0087676   192.2206749   0.0078082   
03528   192.9337881   0.0078117   0.00876   193.065486   0.0077957   96.3258565   64.2172376   0.0003051   192.3106797   0.0078241   0.0087698   192.6593408   0.0078082   
03529   193.3538969   0.0078118   0.0087622   193.4870906   0.0077958   96.5362238   64.3574826   0.0003058   192.705709   0.0078243   0.008772   193.0628789   0.0078084   
03530   193.773918   0.0078119   0.0087644   193.9087338   0.0077959   96.7468796   64.4979198   0.0003065   193.0820914   0.0078246   0.0087742   193.4503197   0.0078087   
03531   194.1836543   0.0078121   0.0087666   194.3212195   0.007796   96.9527163   64.6351442   0.0003071   193.5217329   0.0078246   0.0087764   193.8906815   0.0078087   
03532   194.5641729   0.0078124   0.0087689   194.7039492   0.0077964   97.144104   64.762736   0.0003077   193.8936035   0.0078249   0.0087787   194.2756014   0.007809   
03533   188.5967195   0.0078241   0.0087507   188.7205801   0.0078081   94.1541689   62.7694459   0.0002983   188.9531771   0.0078316   0.0087605   189.3344439   0.0078157   
03534   189.0338312   0.0078241   0.0087528   189.1589645   0.0078081   94.3730926   62.9153951   0.000299   189.3885693   0.0078316   0.0087627   189.7717479   0.0078157   
03535   189.4687219   0.0078241   0.008755   189.5951953   0.0078081   94.5909714   63.0606476   0.0002997   189.8227374   0.0078316   0.0087649   190.207911   0.0078157   
03536   189.8978226   0.0078241   0.0087572   190.0257957   0.0078081   94.8059529   63.2039686   0.0003004   190.2491142   0.0078316   0.008767   190.6367019   0.0078157   
03537   190.3305434   0.0078241   0.0087594   190.4598426   0.0078081   95.0227463   63.3484975   0.0003011   190.6828833   0.0078316   0.0087692   191.0723263   0.0078157   
03538   190.7676632   0.0078241   0.0087616   190.898227   0.0078081   95.2416703   63.4944469   0.0003017   191.1182832   0.0078316   0.0087714   191.5096303   0.0078157   
03539   191.2023815   0.0078241   0.0087637   191.3341859   0.0078081   95.4593893   63.6395929   0.0003024   191.5513245   0.0078316   0.0087736   191.944532   0.0078157   
03540   191.6358011   0.0078241   0.0087659   191.7689275   0.0078081   95.6764596   63.7843064   0.0003031   191.9827698   0.0078316   0.0087757   192.3780126   0.0078157   
03541   192.0722677   0.0078241   0.0087681   192.2066472   0.0078081   95.8950672   63.9300448   0.0003038   192.4175262   0.0078316   0.0087779   192.8146543   0.0078157   
03542   192.4906818   0.0078242   0.0087703   192.6264403   0.0078082   96.104726   64.0698173   0.0003044   192.8563356   0.0078316   0.0087801   193.2516718   0.0078157   
03543   192.9209929   0.0078242   0.0087725   193.0580612   0.0078082   96.320338   64.2135587   0.0003051   193.2881925   0.0078316   0.0087823   193.6899704   0.0078157   
03544   193.3381807   0.0078244   0.0087747   193.4772028   0.0078083   96.529632   64.353088   0.0003058   193.720873   0.0078316   0.0087844   194.1259681   0.0078157   
03545   193.7580063   0.0078245   0.0087769   193.8986536   0.0078084   96.7401527   64.4934352   0.0003064   194.1644978   0.0078316   0.0087866   194.5607329   0.0078157   
03546   193.5992048   0.0078282   0.0087798   193.7385728   0.0078122   96.6607949   64.4405299   0.0003062   193.237159   0.0078393   0.0087896   193.6254722   0.0078233   
03547   193.9695517   0.0078286   0.0087821   194.1113939   0.0078126   96.8468791   64.5645861   0.0003068   193.688669   0.0078393   0.0087919   194.07946   0.0078233   
03548   194.4005976   0.0078287   0.0087843   194.5436344   0.0078126   97.0628014   64.7085343   0.0003074   194.1250606   0.0078393   0.0087941   194.5175922   0.0078233   
03549   194.7924178   0.0078288   0.0087864   194.9372545   0.0078128   97.259138   64.8394254   0.0003081   194.5473676   0.0078393   0.0087962   194.9406976   0.0078233   
03550   195.0493661   0.0078299   0.0087888   195.1965825   0.0078138   97.3882445   64.9254964   0.0003085   194.9998669   0.0078394   0.0087986   195.3900348   0.0078234   
03551   188.8066691   0.0078737   0.0088012   188.905557   0.0078576   94.2478943   62.8319295   0.0002986   188.3434756   0.0078856   0.0088115   188.774364   0.0078696   
03552   189.2437581   0.0078737   0.0088034   189.3439413   0.0078576   94.4668184   62.9778789   0.0002993   188.7788226   0.0078856   0.0088137   189.211668   0.0078696   
03553   189.6743454   0.0078738   0.0088056   189.776098   0.0078576   94.682641   63.1217607   0.0003   189.2158093   0.0078856   0.0088159   189.6507615   0.0078696   
03554   190.1054918   0.0078738   0.0088078   190.2086934   0.0078577   94.8984882   63.2656588   0.0003007   189.6530994   0.0078856   0.008818   190.0898278   0.0078696   
03555   190.5185797   0.007874   0.00881   190.623851   0.0078578   95.1060285   63.404019   0.0003013   190.0954784   0.0078856   0.0088203   190.5337777   0.0078696   
03556   190.9481426   0.007874   0.0088122   191.0551308   0.0078579   95.3213462   63.5475642   0.000302   190.5328701   0.0078856   0.0088225   190.9733123   0.0078696   
03557   191.3318365   0.0078743   0.0088145   191.4445392   0.0078582   95.5158054   63.6772036   0.0003026   190.966638   0.0078856   0.0088246   191.4138983   0.0078696   
03558   191.76387   0.0078744   0.0088166   191.878024   0.0078582   95.7321693   63.8214462   0.0003033   191.4034055   0.0078856   0.0088268   191.8527599   0.0078696   
03559   192.1995715   0.0078744   0.0088188   192.315075   0.0078582   95.9504235   63.966949   0.000304   191.8388033   0.0078856   0.008829   192.2902541   0.0078696   
03560   192.6319639   0.0078744   0.008821   192.7487143   0.0078583   96.1668818   64.1112545   0.0003046   192.2341655   0.0078858   0.0088312   192.6927868   0.0078698   
03561   193.059613   0.0078745   0.0088232   193.1778876   0.0078583   96.3811638   64.2541092   0.0003053   192.6719018   0.0078858   0.0088334   193.1330795   0.0078698   
03562   193.470552   0.0078746   0.0088255   193.590816   0.0078585   96.5874563   64.3916375   0.000306   193.1139962   0.0078858   0.0088356   193.5783471   0.0078698   
03563   193.907674   0.0078746   0.0088277   194.0292003   0.0078585   96.8063803   64.5375868   0.0003066   193.549372   0.0078858   0.0088378   194.015651   0.0078698   
03564   194.3224264   0.0078748   0.0088299   194.4457157   0.0078586   97.0148243   64.6765495   0.0003073   193.9907067   0.0078858   0.00884   194.4590088   0.0078698   
03565   194.7405273   0.0078749   0.0088321   194.8669806   0.0078588   97.2254329   64.8169553   0.000308   194.4236003   0.0078858   0.0088422   194.895667   0.0078698   
03566   195.0819103   0.0078755   0.0088344   195.2112902   0.0078594   97.3974659   64.931644   0.0003085   194.7010252   0.0078868   0.0088445   195.1703792   0.0078707   
03567   194.5015779   0.0078805   0.0088365   194.6642513   0.0078643   97.1247048   64.7498032   0.0003077   194.7193796   0.0078868   0.0088446   195.1969716   0.0078707   
03568   194.9260871   0.0078805   0.0088387   195.0900029   0.0078644   97.3371042   64.8914028   0.0003084   195.1553553   0.0078868   0.0088468   195.6345571   0.0078707   
03569   195.2941151   0.0078808   0.0088409   195.4574998   0.0078647   97.5206628   65.0137752   0.000309   195.5736252   0.0078869   0.0088489   196.0318409   0.0078708   
03570   195.6909006   0.007881   0.008843   195.8560083   0.0078649   97.716736   65.1444906   0.0003096   196.0064783   0.0078869   0.0088511   196.467208   0.0078708   
03571   196.0720909   0.0078813   0.0088452   196.2366503   0.0078652   97.907011   65.2713407   0.0003102   196.4483951   0.0078869   0.0088533   196.9076369   0.0078708   
03572   196.3650813   0.0078822   0.0088476   196.5314318   0.007866   98.0533362   65.3688908   0.0003106   196.8203962   0.0078873   0.0088557   197.2830041   0.0078713   
03573   186.757503   0.0079468   0.008864   186.8863491   0.0079306   93.2356871   62.1571247   0.0002956   187.1640145   0.0079526   0.0088723   187.5121151   0.0079366   
03574   187.1939545   0.0079468   0.0088662   187.3241206   0.0079306   93.454304   62.3028693   0.0002963   187.599509   0.0079526   0.0088745   187.9496218   0.0079366   
03575   187.6310587   0.0079468   0.0088683   187.762505   0.0079306   93.6732279   62.4488186   0.000297   188.0348486   0.0079526   0.0088767   188.386926   0.0079366   
03576   188.068165   0.0079468   0.0088705   188.2008892   0.0079306   93.8921521   62.594768   0.0002977   188.470191   0.0079526   0.0088789   188.8242302   0.0079366   
03577   188.5052733   0.0079468   0.0088727   188.6392736   0.0079306   94.1110761   62.7407174   0.0002983   188.9055356   0.0079526   0.008881   189.2615347   0.0079366   
03578   188.9361126   0.0079468   0.0088749   189.0716251   0.0079306   94.3269803   62.8846535   0.000299   189.3426545   0.0079526   0.0088832   189.7005912   0.0079366   
03579   189.3718414   0.0079468   0.0088771   189.508679   0.0079306   94.5452393   63.0301595   0.0002997   189.778419   0.0079526   0.0088854   190.1382961   0.0079366   
03580   189.8083299   0.0079468   0.0088793   189.9464714   0.0079306   94.7638674   63.1759116   0.0003004   190.2140488   0.0079526   0.0088876   190.5755741   0.0079366   
03581   190.2454469   0.0079468   0.0088815   190.3848558   0.0079306   94.9827914   63.3218609   0.0003011   190.6494026   0.0079526   0.0088898   191.0128785   0.0079366   
03582   190.6815753   0.0079468   0.0088837   190.8222875   0.0079306   95.20124   63.4674934   0.0003017   191.0850543   0.0079526   0.008892   191.4504727   0.0079366   
03583   191.1186963   0.0079468   0.0088859   191.2606719   0.0079306   95.420164   63.6134426   0.0003024   191.5204126   0.0079526   0.0088942   191.8877767   0.0079366   
03584   191.5558192   0.0079468   0.0088881   191.6990562   0.0079306   95.6390879   63.7593919   0.0003031   191.9557727   0.0079526   0.0088963   192.3250805   0.0079366   
03585   191.9726286   0.0079469   0.0088903   192.1177313   0.0079308   95.8481697   63.8987798   0.0003038   192.2788359   0.0079532   0.0088985   192.6532163   0.0079371   
03586   192.4097567   0.0079469   0.0088925   192.5561156   0.0079308   96.0670936   64.0447291   0.0003045   192.714202   0.0079532   0.0089007   193.0905204   0.0079371   
03587   192.842646   0.007947   0.0088947   192.9903661   0.0079308   96.2839385   64.1892923   0.0003051   193.150699   0.0079532   0.0089029   193.5292859   0.0079371   
03588   193.2789185   0.007947   0.0088969   193.4278487   0.0079308   96.5024036   64.3349357   0.0003058   193.5823969   0.0079532   0.0089051   193.9629352   0.0079371   
03589   193.7137299   0.007947   0.008899   193.8638583   0.0079308   96.7201281   64.4800854   0.0003065   194.0180634   0.0079532   0.0089073   194.4004503   0.0079371   
03590   194.1470125   0.007947   0.0089012   194.2983488   0.0079308   96.9371105   64.6247404   0.0003072   194.4105624   0.0079534   0.0089094   194.7996387   0.0079373   
03591   194.579824   0.007947   0.0089034   194.7324961   0.0079308   97.1539093   64.7692728   0.0003079   194.8455885   0.0079534   0.0089116   195.2375826   0.0079373   
03592   195.0094843   0.0079471   0.0089056   195.1635905   0.0079309   97.369194   64.912796   0.0003085   195.2297511   0.0079536   0.0089138   195.6296576   0.0079376   
03593   195.4447693   0.0079471   0.0089078   195.6001811   0.0079309   97.5871983   65.0581322   0.0003092   195.663899   0.0079536   0.008916   196.0658222   0.0079376   
03594   195.87747   0.0079471   0.00891   196.0335993   0.0079309   97.8036101   65.2024068   0.0003099   196.0991601   0.0079536   0.0089182   196.5029488   0.0079376   
03595   196.3073516   0.0079471   0.0089122   196.4651987   0.0079309   98.0191225   65.3460816   0.0003106   196.5389833   0.0079536   0.0089204   196.9444892   0.0079376   
03596   196.619736   0.0079479   0.0089145   196.7800793   0.0079317   98.1761293   65.4507528   0.0003111   196.7854395   0.0079548   0.0089227   197.1694579   0.0079387   
03597   196.9795466   0.0079484   0.0089168   197.1417407   0.0079322   98.3569646   65.5713097   0.0003116   197.2386881   0.0079548   0.008925   197.6193041   0.0079387   
03598   197.3613214   0.0079486   0.008919   197.525558   0.0079324   98.5488147   65.6992098   0.0003122   197.6033387   0.0079551   0.0089271   197.9794903   0.007939   
03599   197.3007113   0.0079517   0.0089217   197.4600647   0.0079354   98.5151635   65.6767757   0.0003121   197.5355281   0.007958   0.0089297   197.9375346   0.0079419   
03600   197.6836463   0.0079519   0.0089238   197.8432758   0.0079357   98.7065013   65.8043342   0.0003127   197.972358   0.007958   0.0089319   198.3748698   0.0079419   
03601   197.6369426   0.0079549   0.0089266   197.7990859   0.0079387   98.6844729   65.7896486   0.0003127   197.9513103   0.0079609   0.0089347   198.3453026   0.0079448   
03602   187.1493089   0.0080264   0.0089455   187.2684065   0.0080101   93.4240403   62.2826935   0.0002962   187.17651   0.0080339   0.0089537   187.5911127   0.0080177   
03603   187.5863986   0.0080264   0.0089477   187.7067908   0.0080101   93.6429643   62.4286429   0.0002969   187.6118486   0.0080339   0.0089559   188.0284168   0.0080177   
03604   188.0184266   0.0080264   0.0089499   188.1404183   0.0080102   93.8595406   62.5730271   0.0002976   188.048612   0.0080339   0.0089581   188.4672059   0.0080177   
03605   188.3657023   0.008027   0.0089522   188.4912073   0.0080108   94.0345435   62.6896956   0.0002981   188.4202309   0.0080343   0.0089604   188.8541997   0.0080182   
03606   188.7965693   0.0080271   0.0089544   188.9236424   0.0080108   94.2505652   62.8337101   0.0002988   188.8590634   0.0080343   0.0089626   189.2905433   0.0080182   
03607   189.233117   0.0080271   0.0089566   189.3614913   0.0080108   94.4692147   62.9794764   0.0002995   189.294597   0.0080343   0.0089648   189.7279974   0.0080182   
03608   189.6640411   0.0080271   0.0089588   189.7938325   0.0080108   94.6851358   63.1234238   0.0003001   189.7318498   0.0080343   0.008967   190.1671056   0.0080182   
03609   190.0996731   0.0080271   0.008961   190.2308088   0.0080108   94.9033656   63.2689104   0.0003008   190.1683962   0.0080343   0.0089691   190.603183   0.0080182   
03610   190.5303302   0.0080272   0.0089632   190.6629571   0.0080109   95.1191677   63.4127785   0.0003015   190.605734   0.0080343   0.0089713   191.0423415   0.0080182   
03611   190.9632704   0.0080272   0.0089654   191.0973132   0.0080109   95.3360912   63.5573942   0.0003022   191.0422537   0.0080343   0.0089735   191.4809461   0.0080182   
03612   191.3919385   0.0080272   0.0089676   191.5274633   0.008011   95.5508342   63.7005561   0.0003029   191.4797588   0.0080343   0.0089757   191.9211726   0.0080182   
03613   191.7893882   0.0080275   0.0089698   191.9270666   0.0080112   95.7504787   63.8336525   0.0003035   191.8183949   0.0080348   0.008978   192.2580496   0.0080187   
03614   192.2265107   0.0080275   0.008972   192.3654509   0.0080112   95.9694025   63.9796017   0.0003042   192.2537685   0.0080348   0.0089801   192.6953535   0.0080187   
03615   192.65433   0.0080275   0.0089742   192.7947529   0.0080113   96.1838301   64.1225534   0.0003048   192.6247133   0.0080352   0.0089823   193.0754924   0.008019   
03616   193.0893275   0.0080276   0.0089764   193.2310243   0.0080113   96.401676   64.267784   0.0003055   193.0606207   0.0080352   0.0089845   193.5135844   0.008019   
03617   193.5161889   0.0080276   0.0089786   193.6594496   0.0080114   96.615705   64.41047   0.0003062   193.4984584   0.0080352   0.0089867   193.9546775   0.008019   
03618   193.9521465   0.0080276   0.0089808   194.0967032   0.0080114   96.8340763   64.5560509   0.0003069   193.9341914   0.0080352   0.0089889   194.3923255   0.008019   
03619   194.3787471   0.0080277   0.008983   194.5247854   0.0080114   97.0478434   64.6985623   0.0003075   194.3735955   0.0080352   0.0089911   194.830181   0.008019   
03620   194.8115724   0.0080277   0.0089852   194.9589096   0.0080115   97.2646237   64.8430825   0.0003082   194.8097984   0.0080352   0.0089933   195.2693408   0.008019   
03621   195.247927   0.0080277   0.0089874   195.3965258   0.0080115   97.4831523   64.9887682   0.0003089   195.2454454   0.0080352   0.0089955   195.7068625   0.008019   
03622   195.6718218   0.0080278   0.0089896   195.8219366   0.0080115   97.6954508   65.1303005   0.0003096   195.5982445   0.0080356   0.0089977   196.0602528   0.0080195   
03623   196.1071253   0.0080278   0.0089918   196.2585498   0.0080116   97.9135096   65.2756731   0.0003102   196.0341788   0.0080356   0.0089999   196.4981063   0.0080195   
03624   196.5091511   0.0080279   0.0089938   196.6605911   0.0080116   98.1145976   65.4097317   0.0003109   196.4500048   0.0080356   0.0090019   196.9131688   0.0080195   
03625   196.9268828   0.008028   0.008996   197.0800508   0.0080117   98.3241868   65.5494578   0.0003115   196.8869875   0.0080356   0.0090041   197.3531985   0.0080195   
03626   197.3063742   0.0080282   0.0089982   197.4602808   0.0080119   98.5141321   65.676088   0.0003121   197.2803691   0.0080358   0.0090063   197.7409386   0.0080196   
03627   197.6027996   0.0080285   0.0089999   197.7525099   0.0080122   98.6600119   65.7733412   0.0003126   197.5506835   0.0080358   0.0090075   197.9557437   0.0080196   
03628   197.9850418   0.0080288   0.0090021   198.134912   0.0080125   98.8504882   65.9003255   0.0003132   197.9690606   0.0080358   0.0090096   198.3728627   0.0080196   
03629   197.6101132   0.008029   0.0090005   197.7646217   0.0080127   98.6664524   65.777635   0.0003126   197.5741261   0.008036   0.0090078   197.9887574   0.0080198   
03630   198.0089056   0.0080292   0.0090027   198.1651644   0.008013   98.8667094   65.9111396   0.0003132   198.0191341   0.008036   0.0090101   198.4357237   0.0080198   
03631   198.2905046   0.0080293   0.0090042   198.4484414   0.0080131   99.0084446   66.0056297   0.0003137   198.3148152   0.008036   0.0090116   198.7365814   0.0080198   
03632   198.4590174   0.008031   0.0090068   198.6199331   0.0080148   99.0943587   66.0629058   0.0003139   198.7016981   0.0080366   0.0090141   199.1280482   0.0080205   
03633   198.7740043   0.0080313   0.0090086   198.9332964   0.008015   99.2553248   66.1702165   0.0003145   199.0773489   0.0080366   0.009016   199.4977996   0.0080205   
03634   198.9666172   0.0080324   0.0090107   199.1285333   0.0080161   99.3536689   66.2357793   0.0003148   199.4410275   0.0080368   0.009018   199.8421887   0.0080207   
03635   199.318955   0.0080329   0.0090129   199.4825561   0.0080166   99.5297125   66.3531417   0.0003154   199.7627783   0.0080375   0.0090203   200.1580422   0.0080213   
03636   188.3871739   0.0081048   0.00903   188.5007087   0.0080885   94.0421128   62.6947419   0.0002983   188.7665621   0.0081102   0.0090379   189.1219146   0.008094   
03637   188.8242869   0.0081048   0.0090322   188.9390931   0.0080885   94.261037   62.8406913   0.000299   189.201969   0.0081102   0.00904   189.5592185   0.008094   
03638   189.2137736   0.0081051   0.0090344   189.3311156   0.0080888   94.4563452   62.9708968   0.0002996   189.6510567   0.0081102   0.0090423   190.0110897   0.008094   
03639   189.6494325   0.0081051   0.0090366   189.7680873   0.0080888   94.6745409   63.1163606   0.0003003   190.0868895   0.0081102   0.0090445   190.4488344   0.008094   
03640   190.085922   0.0081051   0.0090388   190.2058629   0.0080888   94.8931438   63.2620958   0.0003009   190.5224828   0.0081102   0.0090467   190.8863327   0.008094   
03641   190.5230461   0.0081051   0.009041   190.6442472   0.0080888   95.1120678   63.4080452   0.0003016   190.9578984   0.0081102   0.0090488   191.3236368   0.008094   
03642   190.9560514   0.0081051   0.0090432   191.0786271   0.0080888   95.3290483   63.5526989   0.0003023   191.3946165   0.0081102   0.009051   191.7621871   0.008094   
03643   191.3894165   0.0081052   0.0090454   191.5133612   0.0080888   95.5461272   63.6974181   0.000303   191.8311735   0.0081102   0.0090532   192.2005969   0.008094   
03644   191.8265468   0.0081052   0.0090476   191.9517456   0.0080888   95.7650511   63.8433674   0.0003037   192.266595   0.0081102   0.0090554   192.6379011   0.008094   
03645   192.2636789   0.0081052   0.0090498   192.3901299   0.0080888   95.9839754   63.9893169   0.0003044   192.7020181   0.0081102   0.0090576   193.0752053   0.008094   
03646   192.6945559   0.0081052   0.009052   192.8224156   0.0080889   96.1999185   64.133279   0.000305   193.1394318   0.0081102   0.0090598   193.5140885   0.008094   
03647   193.1277466   0.0081052   0.0090542   193.2569497   0.0080889   96.4169445   64.277963   0.0003057   193.5761523   0.0081102   0.009062   193.9526676   0.008094   
03648   193.5598903   0.0081052   0.0090564   193.6905005   0.0080889   96.6335711   64.4223807   0.0003064   194.0132047   0.0081102   0.0090642   194.3916044   0.008094   
03649   193.9835094   0.0081053   0.0090586   194.1157055   0.008089   96.8460188   64.5640125   0.0003071   194.4527316   0.0081102   0.0090664   194.832853   0.008094   
03650   194.3891989   0.0081055   0.0090608   194.5235302   0.0080892   97.0503473   64.7002315   0.0003077   194.896338   0.0081102   0.0090686   195.2809395   0.008094   
03651   194.7940278   0.0081057   0.0090631   194.9299506   0.0080894   97.2532209   64.8354806   0.0003083   195.3407306   0.0081102   0.0090708   195.7283642   0.008094   
03652   195.2254911   0.0081058   0.0090653   195.3626678   0.0080894   97.4694674   64.9796449   0.000309   195.7409591   0.0081103   0.009073   196.1367589   0.0080942   
03653   195.6573678   0.0081058   0.0090675   195.7959175   0.0080895   97.6859112   65.1239408   0.0003097   196.1784462   0.0081103   0.0090752   196.5737197   0.0080942   
03654   196.0893486   0.0081058   0.0090697   196.2293284   0.0080895   97.9022451   65.2681634   0.0003104   196.6156116   0.0081103   0.0090774   197.0108587   0.0080942   
03655   196.484699   0.0081061   0.0090719   196.6268785   0.0080898   98.1009153   65.4006102   0.000311   197.0653313   0.0081103   0.0090796   197.4576187   0.0080942   
03656   196.9199469   0.0081061   0.0090741   197.0635363   0.0080898   98.3189794   65.5459863   0.0003117   197.4997874   0.0081103   0.0090818   197.8941567   0.0080942   
03657   197.3516998   0.0081062   0.0090763   197.4966512   0.0080898   98.5352203   65.6901469   0.0003123   197.9366596   0.0081103   0.009084   198.3330405   0.0080942   
03658   197.7622634   0.0081063   0.0090785   197.9093146   0.0080899   98.7414854   65.8276569   0.000313   198.3686491   0.0081103   0.0090862   198.7642116   0.0080942   
03659   198.1877525   0.0081063   0.0090806   198.3355694   0.00809   98.9544128   65.9696086   0.0003137   198.746697   0.0081106   0.0090883   199.1497657   0.0080944   
03660   198.599741   0.0081063   0.0090827   198.749001   0.00809   99.160143   66.106762   0.0003143   199.1637973   0.0081106   0.0090904   199.5694633   0.0080944   
03661   198.7909472   0.0081079   0.0090852   198.9397435   0.0080915   99.2554588   66.1703058   0.0003146   199.4417171   0.0081118   0.009093   199.8430818   0.0080956   
03662   199.2035172   0.008108   0.0090874   199.3533524   0.0080917   99.462176   66.3081173   0.0003153   199.8817744   0.0081118   0.0090952   200.2863848   0.0080956   
03663   199.335303   0.0081099   0.0090899   199.4868465   0.0080935   99.527807   66.3518713   0.0003155   200.2997733   0.0081123   0.0090977   200.6839215   0.0080961   
03664   199.6467269   0.0081103   0.0090919   199.8002865   0.008094   99.6868411   66.4578941   0.000316   200.5099889   0.0081131   0.0090997   200.9192621   0.0080969   
03665   199.5348854   0.0081139   0.0090949   199.6858757   0.0080975   99.631745   66.4211633   0.0003158   200.5392278   0.008116   0.0091027   200.9421011   0.0080998   
03666   199.8810804   0.0081144   0.0090972   200.0350805   0.0080981   99.80601   66.53734   0.0003164   200.9554759   0.0081162   0.009105   201.3574469   0.0081   
03667   191.1281173   0.0081745   0.0091134   191.2597366   0.0081581   95.4228126   63.6152084   0.0003027   192.1351445   0.0081765   0.0091209   192.4455514   0.0081603   
03668   191.5652358   0.0081745   0.0091155   191.6981209   0.0081581   95.6417366   63.7611577   0.0003034   192.570576   0.0081765   0.0091231   192.8828552   0.0081603   
03669   191.9870773   0.0081746   0.0091178   192.1216702   0.0081582   95.8532568   63.9021712   0.000304   192.8908366   0.0081771   0.0091253   193.2136984   0.0081609   
03670   192.4233163   0.0081746   0.0091199   192.5591951   0.0081582   96.071749   64.0478327   0.0003047   193.3265481   0.0081771   0.0091275   193.6512369   0.0081609   
03671   192.8604416   0.0081746   0.0091221   192.9975794   0.0081582   96.2906729   64.1937819   0.0003054   193.7619887   0.0081771   0.0091297   194.0885407   0.0081609   
03672   193.2844325   0.0081747   0.0091243   193.423039   0.0081583   96.5031223   64.3354149   0.0003061   194.2016018   0.0081771   0.0091319   194.5293074   0.0081609   
03673   193.6791001   0.0081749   0.0091266   193.8198877   0.0081585   96.701268   64.467512   0.0003067   194.6496839   0.0081771   0.0091341   194.9792322   0.0081609   
03674   194.1162339   0.0081749   0.0091288   194.2582721   0.0081585   96.9201923   64.6134615   0.0003074   195.0851305   0.0081771   0.0091363   195.4165364   0.0081609   
03675   194.552629   0.0081749   0.009131   194.6959306   0.0081585   97.1387495   64.7591663   0.000308   195.5208024   0.0081771   0.0091385   195.8540744   0.0081609   
03676   194.985454   0.008175   0.0091332   195.1300818   0.0081586   97.3555573   64.9037048   0.0003087   195.9576517   0.0081771   0.0091407   196.2925586   0.0081609   
03677   195.4225935   0.008175   0.0091354   195.5684661   0.0081586   97.5744813   65.0496542   0.0003094   196.3931036   0.0081771   0.0091429   196.7298627   0.0081609   
03678   195.8597349   0.008175   0.0091376   196.0068504   0.0081586   97.7934052   65.1956035   0.0003101   196.8285573   0.0081771   0.0091451   197.1671667   0.0081609   
03679   196.2956481   0.008175   0.0091397   196.4440395   0.0081586   98.0117332   65.3411555   0.0003108   197.2643721   0.0081771   0.0091472   197.6048438   0.0081609   
03680   196.7319579   0.008175   0.0091419   196.881632   0.0081586   98.2302614   65.4868409   0.0003115   197.7001334   0.0081771   0.0091494   198.0422778   0.0081609   
03681   197.1665983   0.008175   0.0091441   197.317963   0.0081586   98.4481571   65.6321047   0.0003121   198.1354744   0.0081771   0.0091516   198.4794823   0.0081609   
03682   197.5972826   0.008175   0.0091463   197.7501321   0.0081586   98.6639792   65.7759862   0.0003128   198.5727869   0.0081771   0.0091538   198.9187286   0.0081609   
03683   197.9942089   0.0081753   0.0091486   198.1492289   0.0081589   98.863281   65.908854   0.0003134   199.0194364   0.0081771   0.009156   199.3693211   0.0081609   
03684   198.429354   0.0081753   0.0091508   198.5859018   0.0081589   99.0813479   66.0542319   0.0003141   199.4548731   0.0081771   0.0091582   199.8066117   0.0081609   
03685   198.8410938   0.0081755   0.009153   199.0010372   0.0081591   99.2886563   66.1924375   0.0003148   199.8933946   0.0081771   0.0091604   200.247024   0.0081609   
03686   199.2699502   0.0081755   0.0091552   199.4312298   0.0081591   99.5034832   66.3356555   0.0003154   200.3313436   0.0081771   0.0091626   200.6868759   0.0081609   
03687   191.0764203   0.008232   0.0091706   191.2107369   0.0082155   95.396787   63.597858   0.0003026   192.3191179   0.0082329   0.0091783   192.660397   0.0082166   
03688   191.5125244   0.008232   0.0091728   191.6481295   0.0082155   95.6152126   63.743475   0.0003033   192.7548826   0.0082329   0.0091805   193.098005   0.0082166   
03689   191.9496602   0.008232   0.009175   192.0865138   0.0082155   95.8341363   63.8894242   0.000304   193.1903601   0.0082329   0.0091827   193.5353089   0.0082166   
03690   192.3853186   0.008232   0.0091772   192.52349   0.0082156   96.0523505   64.0349004   0.0003046   193.6263124   0.0082329   0.0091849   193.9729063   0.0082166   
03691   192.8056817   0.0082321   0.0091794   192.9454233   0.0082157   96.26299   64.1753267   0.0003053   194.0653955   0.0082329   0.0091871   194.4171968   0.0082166   
03692   193.242824   0.0082321   0.0091816   193.3838076   0.0082157   96.4819143   64.3212762   0.000306   194.5008787   0.0082329   0.0091892   194.8545012   0.0082166   
03693   193.6799681   0.0082321   0.0091838   193.822192   0.0082157   96.7008382   64.4672255   0.0003067   194.9363631   0.0082329   0.0091914   195.2918052   0.0082166   
03694   194.1171139   0.0082321   0.0091859   194.2605763   0.0082157   96.9197623   64.6131749   0.0003074   195.3718493   0.0082329   0.0091936   195.7291094   0.0082166   
03695   194.5533503   0.0082321   0.0091881   194.6980718   0.0082157   97.1382343   64.7588229   0.000308   195.7700947   0.0082331   0.0091958   196.1317442   0.0082168   
03696   194.9766312   0.0082322   0.0091903   195.1227868   0.0082158   97.3502675   64.9001783   0.0003087   196.2107766   0.0082331   0.009198   196.5685177   0.0082168   
03697   195.4083239   0.0082323   0.0091925   195.5558801   0.0082158   97.5665953   65.0443968   0.0003094   196.647605   0.0082331   0.0092002   197.0078214   0.0082168   
03698   195.8445975   0.0082323   0.0091947   195.9934044   0.0082158   97.7850849   65.1900566   0.0003101   197.0833557   0.0082331   0.0092024   197.4453813   0.0082168   
03699   196.2782944   0.0082323   0.0091969   196.4284072   0.0082158   98.0022943   65.3348629   0.0003107   197.5199008   0.0082331   0.0092046   197.8837677   0.0082168   
03700   196.7131823   0.0082323   0.0091991   196.8645863   0.0082158   98.2201151   65.4800767   0.0003114   197.956048   0.0082331   0.0092067   198.3217371   0.0082168   
03701   197.1442129   0.0082323   0.0092013   197.2971522   0.0082159   98.4361002   65.6240668   0.0003121   198.3930882   0.0082331   0.0092089   198.7608252   0.0082168   
03702   197.5803888   0.0082323   0.0092035   197.7345233   0.0082159   98.6545202   65.7696801   0.0003128   198.8293759   0.0082331   0.0092111   199.1985875   0.0082168   
03703   198.0084042   0.0082324   0.0092057   198.1639654   0.0082159   98.8689694   65.9126463   0.0003135   199.2674021   0.0082331   0.0092133   199.6384933   0.0082168   
03704   198.4413842   0.0082324   0.0092079   198.5982806   0.008216   99.0858774   66.0572516   0.0003141   199.7041196   0.0082331   0.0092155   200.0770045   0.0082168   
03705   198.8701267   0.0082325   0.0092101   199.0283566   0.008216   99.3007149   66.2004766   0.0003148   200.1382465   0.0082331   0.0092177   200.5129251   0.0082168   
03706   199.1966235   0.0082331   0.0092124   199.354718   0.0082167   99.4639624   66.3093083   0.0003153   200.0698249   0.0082359   0.0092202   200.4711207   0.0082196   
03707   199.6228638   0.0082332   0.0092146   199.7824   0.0082167   99.6776349   66.4517566   0.000316   200.507188   0.0082359   0.0092224   200.9106194   0.0082196   
03708   189.7648509   0.0082333   0.0091654   189.9138468   0.0082169   94.7415472   63.1610315   0.0003013   190.4979851   0.0082363   0.0091728   190.9004828   0.0082201   
03709   190.2019924   0.0082333   0.0091676   190.3522312   0.0082169   94.9604713   63.3069809   0.0003019   190.9334676   0.0082363   0.009175   191.337787   0.0082201   
03710   190.6248414   0.0082333   0.0091697   190.77562   0.0082169   95.1724849   63.4483232   0.0003026   191.3566878   0.0082363   0.0091771   191.7616853   0.0082201   
03711   191.0590252   0.0082333   0.0091719   191.210893   0.0082169   95.3901097   63.5934064   0.0003033   191.7896013   0.0082363   0.0091792   192.1961388   0.0082201   
03712   191.4900554   0.0082333   0.009174   191.6429107   0.0082169   95.6060902   63.7373935   0.000304   192.2197333   0.0082363   0.0091814   192.6276346   0.0082201   
03713   191.9226032   0.0082333   0.0091762   192.0767353   0.0082169   95.8227729   63.8818486   0.0003046   192.6504806   0.0082363   0.0091836   193.0602753   0.0082201   
03714   192.3597536   0.0082333   0.0091784   192.5151196   0.0082169   96.0416971   64.0277981   0.0003053   193.085971   0.0082363   0.0091857   193.4975793   0.0082201   
03715   192.7927778   0.0082333   0.0091806   192.9494097   0.0082169   96.2585048   64.1723365   0.000306   193.5172174   0.0082363   0.0091879   193.9306952   0.0082201   
03716   193.2239998   0.0082333   0.0091827   193.3817763   0.0082169   96.474416   64.3162773   0.0003067   193.946945   0.0082363   0.0091901   194.362086   0.0082201   
03717   193.6602227   0.0082333   0.0091849   193.8192376   0.0082169   96.6928426   64.4618951   0.0003074   194.3814743   0.0082363   0.0091922   194.7984413   0.0082201   
03718   194.0893686   0.0082333   0.0091871   194.2492107   0.0082169   96.9078299   64.60522   0.000308   194.8100687   0.0082363   0.0091944   195.2281954   0.0082201   
03719   194.5158893   0.0082333   0.0091892   194.6766168   0.0082169   97.1212761   64.7475174   0.0003087   195.2365001   0.0082363   0.0091965   195.6559611   0.0082201   
03720   194.9530499   0.0082333   0.0091914   195.1150011   0.0082169   97.3402002   64.8934668   0.0003094   195.6719994   0.0082363   0.0091987   196.0932652   0.0082201   
03721   195.383107   0.0082333   0.0091935   195.5456762   0.0082169   97.5552682   65.0368455   0.0003101   196.1022158   0.0082363   0.0092008   196.5245833   0.0082201   
03722   195.7760234   0.0082334   0.0091955   195.9375039   0.0082169   97.750502   65.1670013   0.0003107   196.5026239   0.0082363   0.0092028   196.9226804   0.0082201   
03723   196.2115164   0.0082334   0.0091977   196.3739435   0.0082169   97.9684966   65.3123311   0.0003114   196.9369892   0.0082363   0.009205   197.3587787   0.0082201   
03724   196.6463181   0.0082334   0.0091999   196.8096337   0.0082169   98.1859809   65.4573206   0.000312   197.3710815   0.0082363   0.0092072   197.7944585   0.0082201   
03725   197.0079271   0.0082334   0.0092017   197.1634989   0.008217   98.3623849   65.5749233   0.0003126   197.7681325   0.0082363   0.0092092   198.1887586   0.0082201   
03726   197.4162991   0.0082334   0.0092038   197.5724263   0.008217   98.5661272   65.7107514   0.0003133   198.1796551   0.0082363   0.0092112   198.600453   0.0082201   
03727   197.8460979   0.0082335   0.009206   198.003443   0.008217   98.781366   65.854244   0.0003139   198.6178618   0.0082363   0.0092134   199.0353818   0.0082201   
03728   198.2666756   0.0082335   0.0092081   198.4247207   0.008217   98.9918976   65.9945984   0.0003146   199.0413779   0.0082363   0.0092155   199.45958   0.0082201   
03729   198.6980614   0.0082335   0.0092102   198.856869   0.008217   99.2078909   66.1385939   0.0003153   199.4737655   0.0082363   0.0092177   199.8933155   0.0082201   
03730   199.1273799   0.0082335   0.0092124   199.2875312   0.008217   99.4229453   66.2819635   0.0003159   199.9038121   0.0082363   0.0092199   200.3254602   0.0082201   
03731   199.5240758   0.0082336   0.0092145   199.6857482   0.0082171   99.6214026   66.4142684   0.0003166   200.3135486   0.0082363   0.0092219   200.7364888   0.0082201   
03732   199.5759403   0.0082358   0.009217   199.7502836   0.0082193   99.653676   66.435784   0.0003167   200.7500065   0.0082365   0.0092243   201.1861064   0.0082202   
03733   199.9943708   0.0082358   0.0092191   200.1697509   0.0082193   99.8641219   66.5760813   0.0003174   201.1805071   0.0082365   0.0092265   201.6165056   0.0082202   
03734   200.3335038   0.0082364   0.0092214   200.5090589   0.0082199   100.0333273   66.6888849   0.0003179   201.5062748   0.0082372   0.0092288   201.9482454   0.0082209   
03735   191.7207247   0.0082957   0.0092374   191.8551557   0.0082791   95.7105387   63.8070258   0.0003044   192.3312463   0.0082995   0.009245   192.7496526   0.0082831   
03736   192.1578509   0.0082957   0.0092396   192.2935401   0.0082791   95.9294628   63.9529752   0.0003051   192.7666841   0.0082995   0.0092472   193.1869567   0.0082831   
03737   192.583188   0.0082957   0.0092418   192.7205117   0.0082792   96.1427032   64.0951355   0.0003057   193.2056873   0.0082995   0.0092494   193.6277378   0.0082831   
03738   192.9942723   0.0082959   0.009244   193.1335623   0.0082794   96.3487434   64.2324956   0.0003064   193.6188548   0.0082996   0.0092516   194.0385417   0.0082833   
03739   193.4228427   0.008296   0.0092462   193.5636771   0.0082794   96.5634095   64.3756063   0.000307   194.0574248   0.0082996   0.0092538   194.4771127   0.0082833   
03740   193.8567556   0.008296   0.0092484   193.9989194   0.0082794   96.7807812   64.5205208   0.0003077   194.4938282   0.0082996   0.009256   194.9153869   0.0082833   
03741   194.2854546   0.008296   0.0092506   194.4290049   0.0082795   96.9954876   64.6636584   0.0003084   194.9318864   0.0082996   0.0092582   195.3552993   0.0082833   
03742   194.7220702   0.008296   0.0092528   194.866876   0.0082795   97.2141618   64.8094412   0.0003091   195.3675059   0.0082996   0.0092604   195.7927572   0.0082833   
03743   195.1592129   0.008296   0.009255   195.3052604   0.0082795   97.4330854   64.9553903   0.0003098   195.8029595   0.0082996   0.0092625   196.2300615   0.0082833   
03744   195.5906292   0.0082961   0.0092572   195.7380518   0.0082795   97.6492032   65.0994688   0.0003104   196.2419855   0.0082996   0.0092647   196.663871   0.0082833   
03745   196.0252461   0.0082961   0.0092594   196.1739982   0.0082796   97.8669066   65.2446044   0.0003111   196.6795465   0.0082996   0.0092669   197.1003493   0.0082833   
03746   196.4623947   0.0082961   0.0092616   196.6123826   0.0082796   98.0858305   65.3905537   0.0003118   197.1150087   0.0082996   0.0092691   197.5376533   0.0082833   
03747   196.8928001   0.0082961   0.0092638   197.0441463   0.0082796   98.3014847   65.5343231   0.0003125   197.5534009   0.0082996   0.0092713   197.9754376   0.0082833   
03748   197.3278045   0.0082961   0.0092659   197.4804523   0.0082796   98.5193933   65.6795955   0.0003132   197.988377   0.0082996   0.0092735   198.4149654   0.0082833   
03749   197.7509556   0.0082962   0.0092682   197.9050573   0.0082797   98.7313604   65.8209069   0.0003138   198.4280508   0.0082996   0.0092757   198.8564873   0.0082833   
03750   198.1871943   0.0082962   0.0092703   198.3425533   0.0082797   98.9498633   65.9665755   0.0003145   198.8632446   0.0082996   0.0092779   199.2949236   0.0082833   
03751   198.6084783   0.0082963   0.0092726   198.7652053   0.0082798   99.1609397   66.1072932   0.0003152   199.302603   0.0082996   0.0092801   199.735646   0.0082833   
03752   199.0397728   0.0082964   0.0092748   199.197825   0.0082798   99.3769575   66.251305   0.0003158   199.7396266   0.0082996   0.0092823   200.1750455   0.0082833   
03753   199.4641348   0.0082965   0.009277   199.6236358   0.0082799   99.5897775   66.393185   0.0003165   200.1774484   0.0082996   0.0092844   200.6143689   0.0082833   
03754   199.6182651   0.0082967   0.0092779   199.7658652   0.0082801   99.6612558   66.4408372   0.0003167   200.379839   0.0082999   0.0092857   200.7895438   0.0082836   
03755   200.0494311   0.0082967   0.0092801   200.1983492   0.0082801   99.877203   66.584802   0.0003174   200.814639   0.0082999   0.0092879   201.2263133   0.0082836   
03756   200.1894651   0.0082971   0.0092812   200.3462415   0.0082805   99.9509959   66.6339973   0.0003176   200.9942598   0.0082999   0.0092888   201.4190486   0.0082836   
03757   200.6175953   0.0082971   0.0092834   200.7756449   0.0082806   100.1655435   66.777029   0.0003183   201.429315   0.0082999   0.009291   201.8553523   0.0082836   
03758   193.1457236   0.0083488   0.0092976   193.2809529   0.0083322   96.421906   64.2812706   0.0003066   193.3344178   0.0083549   0.0093053   193.70075   0.0083385   
03759   193.5828631   0.0083488   0.0092998   193.7193372   0.0083322   96.6408297   64.4272198   0.0003073   193.7698807   0.0083549   0.0093075   194.1380543   0.0083385   
03760   194.0192365   0.0083488   0.009302   194.1569678   0.0083322   96.8593761   64.5729174   0.000308   194.2055772   0.0083549   0.0093097   194.5755918   0.0083385   
03761   194.4309037   0.008349   0.0093042   194.5704954   0.0083324   97.0659258   64.7106172   0.0003086   194.6486515   0.0083549   0.0093119   195.0206808   0.0083385   
03762   194.8624756   0.008349   0.0093064   195.0034756   0.0083324   97.2821542   64.8547694   0.0003093   195.0856168   0.0083549   0.0093141   195.4595179   0.0083385   
03763   195.2955878   0.0083491   0.0093086   195.4379341   0.0083325   97.4991532   64.9994355   0.00031   195.5222834   0.0083549   0.0093163   195.8980131   0.0083385   
03764   195.7316212   0.0083491   0.0093108   195.8752485   0.0083325   97.7175353   65.1450236   0.0003106   195.9582919   0.0083549   0.0093185   196.3348007   0.0083385   
03765   196.1655216   0.0083491   0.009313   196.3104675   0.0083325   97.93486   65.2899067   0.0003113   196.3947358   0.0083549   0.0093207   196.7730701   0.0083385   
03766   196.591028   0.0083492   0.0093152   196.7375601   0.0083326   98.1480966   65.4320644   0.000312   196.7627468   0.0083553   0.0093229   197.1351094   0.0083389   
03767   197.025955   0.0083492   0.0093174   197.1737651   0.0083326   98.3659102   65.5772735   0.0003127   197.198907   0.0083553   0.0093251   197.5730528   0.0083389   
03768   197.4388918   0.0083493   0.0093196   197.5886092   0.0083327   98.5729295   65.7152863   0.0003133   197.6411175   0.0083553   0.0093273   198.0182755   0.0083389   
03769   197.8549767   0.0083495   0.0093219   198.0064769   0.0083329   98.781663   65.854442   0.000314   198.08235   0.0083553   0.0093295   198.462286   0.0083389   
03770   198.2849749   0.0083495   0.0093241   198.4378159   0.0083329   98.9971316   65.9980877   0.0003147   198.5197803   0.0083553   0.0093317   198.901998   0.0083389   
03771   198.7064321   0.0083496   0.0093263   198.8609081   0.008333   99.2083664   66.1389109   0.0003153   198.9599665   0.0083553   0.0093339   199.3439718   0.0083389   
03772   199.1377791   0.0083496   0.0093285   199.2935051   0.008333   99.4243536   66.2829024   0.000316   199.3605076   0.0083555   0.0093361   199.7523197   0.0083391   
03773   199.5704117   0.0083497   0.0093307   199.7274771   0.0083331   99.6410702   66.4273802   0.0003167   199.7967217   0.0083555   0.0093383   200.1917085   0.0083391   
03774   199.9340298   0.0083501   0.009333   200.0939639   0.0083335   99.8238885   66.549259   0.0003172   200.085963   0.0083563   0.0093405   200.5028188   0.0083398   
03775   200.362749   0.0083502   0.0093351   200.5239191   0.0083336   100.0387432   66.6924954   0.0003179   200.5223502   0.0083563   0.0093427   200.9404376   0.0083398   
03776   200.7579232   0.0083504   0.0093374   200.9203836   0.0083338   100.2367346   66.8244897   0.0003185   200.963882   0.0083563   0.0093449   201.382693   0.0083398   
03777   191.5033575   0.0083784   0.0093189   191.6202716   0.0083617   95.5952782   63.7301854   0.000304   191.5109781   0.0083831   0.0093244   191.8971716   0.0083666   
03778   191.9405017   0.0083784   0.0093211   192.058656   0.0083617   95.814202   63.8761347   0.0003047   191.9464364   0.0083831   0.0093266   192.3344755   0.0083666   
03779   192.376377   0.0083784   0.0093232   192.4959445   0.0083617   96.0326174   64.0217449   0.0003054   192.3815419   0.0083831   0.0093287   192.7715302   0.0083666   
03780   192.8101868   0.0083784   0.0093254   192.9315415   0.0083617   96.2501166   64.1667444   0.0003061   192.8160608   0.0083831   0.0093309   193.2078712   0.0083666   
03781   193.2473365   0.0083784   0.0093276   193.3699259   0.0083617   96.4690408   64.3126939   0.0003068   193.2515239   0.0083831   0.0093331   193.6451754   0.0083666   
03782   193.6844882   0.0083784   0.0093298   193.8083103   0.0083617   96.6879649   64.4586433   0.0003074   193.6869891   0.0083831   0.0093353   194.0824795   0.0083666   
03783   194.0861287   0.0083784   0.0093318   194.2088407   0.0083617   96.8875388   64.5916925   0.0003081   194.108621   0.0083831   0.0093374   194.5017466   0.0083666   
03784   194.5232829   0.0083784   0.009334   194.6472251   0.0083617   97.1064629   64.7376419   0.0003088   194.5440887   0.0083831   0.0093396   194.9390505   0.0083666   
03785   194.959477   0.0083784   0.0093362   195.084771   0.0083617   97.3249487   64.8832992   0.0003094   194.9792895   0.0083831   0.0093417   195.37606   0.0083666   
03786   195.3966347   0.0083784   0.0093384   195.5231553   0.0083617   97.543873   65.0292487   0.0003101   195.4147611   0.0083831   0.0093439   195.8133642   0.0083666   
03787   195.8299446   0.0083784   0.0093406   195.9578335   0.0083618   97.7609526   65.1739684   0.0003108   195.8477972   0.0083831   0.0093461   196.2483404   0.0083666   
03788   196.2628796   0.0083784   0.0093428   196.3920919   0.0083618   97.977898   65.3185987   0.0003115   196.2788223   0.0083831   0.0093483   196.6812629   0.0083666   
03789   196.6991638   0.0083784   0.009345   196.8296384   0.0083618   98.1963803   65.4642535   0.0003122   196.7144738   0.0083831   0.0093504   197.1187609   0.0083666   
03790   197.1363284   0.0083784   0.0093471   197.2680227   0.0083618   98.4153042   65.6102028   0.0003128   197.1499514   0.0083831   0.0093526   197.556065   0.0083666   
03791   197.5734947   0.0083784   0.0093493   197.706407   0.0083618   98.6342283   65.7561522   0.0003135   197.5854308   0.0083831   0.0093548   197.993369   0.0083666   
03792   198.0106626   0.0083784   0.0093515   198.1447913   0.0083618   98.8531523   65.9021016   0.0003142   198.0209115   0.0083831   0.009357   198.430673   0.0083666   
03793   198.403986   0.0083787   0.0093537   198.5386538   0.008362   99.0501006   66.0334004   0.0003148   198.4722238   0.0083831   0.0093593   198.8830817   0.0083666   
03794   198.8411592   0.0083787   0.0093559   198.9770382   0.008362   99.2690248   66.1793499   0.0003155   198.907708   0.0083831   0.0093614   199.3203855   0.0083666   
03795   199.2535825   0.0083787   0.009358   199.3911617   0.008362   99.4753196   66.3168797   0.0003162   199.2700972   0.0083834   0.0093635   199.6931703   0.0083669   
03796   199.6808768   0.0083788   0.0093602   199.82003   0.0083621   99.6894132   66.4596088   0.0003168   199.7053866   0.0083834   0.0093657   200.1306551   0.0083669   
03797   200.1051878   0.0083788   0.0093624   200.2457392   0.0083622   99.901988   66.6013253   0.0003175   200.0162101   0.008384   0.0093679   200.4483229   0.0083675   
03798   200.4671008   0.0083793   0.0093647   200.6092414   0.0083626   100.0832831   66.7221887   0.0003181   200.3775792   0.0083845   0.0093702   200.8181906   0.008368   
03799   200.8340193   0.0083797   0.009367   200.9779629   0.0083631   100.2680737   66.8453825   0.0003186   200.7843505   0.0083847   0.0093725   201.2383974   0.0083682   
03800   201.0470303   0.0083812   0.0093695   201.1927546   0.0083645   100.3752847   66.9168565   0.000319   201.2762269   0.0083847   0.009375   201.7357126   0.0083682   
03801   201.0966933   0.0083822   0.0093708   201.2357139   0.0083656   100.3960033   66.9306689   0.0003191   201.4134188   0.0083856   0.0093765   201.8268172   0.0083691   
03802   201.4934537   0.0083825   0.009373   201.6341592   0.0083658   100.5950416   67.063361   0.0003197   201.7641292   0.0083861   0.0093787   202.1929999   0.0083696   
03803   201.8147701   0.0083831   0.0093753   201.9602695   0.0083665   100.7565761   67.1710507   0.0003202   202.196208   0.0083861   0.0093809   202.6183487   0.0083696   
03804   189.9795963   0.0084511   0.0093838   190.132623   0.0084342   94.8510523   63.2340349   0.0003017   190.3783715   0.0084589   0.0093943   190.8098331   0.0084422   
03805   190.4156169   0.0084511   0.009386   190.5699464   0.0084343   95.0694363   63.3796242   0.0003024   190.8136899   0.0084589   0.0093965   191.2471128   0.0084422   
03806   190.8273294   0.0084512   0.0093882   190.9831182   0.0084344   95.2759032   63.5172688   0.000303   191.2421705   0.0084589   0.0093986   191.6773372   0.0084422   
03807   191.2644578   0.0084512   0.0093904   191.4215025   0.0084344   95.4948273   63.6632182   0.0003037   191.677632   0.0084589   0.0094008   192.1146416   0.0084422   
03808   191.6507981   0.0084513   0.0093924   191.808736   0.0084344   95.6880895   63.7920597   0.0003043   192.0867258   0.0084589   0.0094029   192.5200361   0.0084422   
03809   192.0107782   0.0084517   0.0093946   192.1744432   0.0084349   95.8707847   63.9138565   0.0003049   192.5305055   0.0084589   0.0094051   192.9709031   0.0084422   
03810   192.4479192   0.0084517   0.0093968   192.6128275   0.0084349   96.0897086   64.0598058   0.0003056   192.9659722   0.0084589   0.0094073   193.4082071   0.0084422   
03811   192.878033   0.0084517   0.009399   193.0439694   0.0084349   96.3049845   64.203323   0.0003063   193.3877074   0.0084589   0.0094094   193.8321681   0.0084422   
03812   193.3107333   0.0084517   0.0094012   193.4777112   0.0084349   96.5216186   64.3477457   0.0003069   193.8179872   0.0084589   0.0094115   194.2638194   0.0084422   
03813   193.7311471   0.0084518   0.0094034   193.8997153   0.008435   96.7324219   64.4882813   0.0003076   194.2576298   0.0084589   0.0094137   194.7059388   0.0084422   
03814   194.1525156   0.0084519   0.0094055   194.3219153   0.008435   96.9433418   64.6288945   0.0003082   194.6890022   0.0084589   0.0094159   195.1380725   0.0084422   
03815   194.5896671   0.0084519   0.0094077   194.7602996   0.008435   97.1622654   64.7748436   0.0003089   195.1244782   0.0084589   0.0094181   195.5753766   0.0084422   
03816   195.0260216   0.0084519   0.0094099   195.1978815   0.008435   97.3808066   64.9205377   0.0003096   195.5594858   0.0084589   0.0094203   196.012138   0.0084422   
03817   195.4449273   0.008452   0.0094121   195.6194429   0.0084351   97.5912358   65.0608239   0.0003103   195.9929585   0.0084589   0.0094224   196.4494371   0.0084422   
03818   195.8722987   0.0084521   0.0094143   196.0483314   0.0084352   97.8053579   65.2035719   0.0003109   196.4317583   0.0084589   0.0094246   196.8878161   0.0084422   
03819   196.2865013   0.0084521   0.0094164   196.4632508   0.0084352   98.0124102   65.3416068   0.0003116   196.8568729   0.0084589   0.0094268   197.3141429   0.0084422   
03820   196.7137222   0.0084521   0.0094186   196.891568   0.0084353   98.226283   65.4841887   0.0003123   197.2836531   0.0084589   0.0094289   197.7418175   0.0084422   
03821   197.079512   0.0084526   0.0094209   197.2614715   0.0084357   98.4109286   65.6072857   0.0003128   197.6997876   0.0084589   0.009431   198.163817   0.0084422   
03822   197.4823804   0.0084526   0.009423   197.6645182   0.0084358   98.6121069   65.7414046   0.0003135   197.8356221   0.0084602   0.0094331   198.3277223   0.0084435   
03823   197.9111529   0.0084527   0.0094252   198.0948075   0.0084358   98.8270475   65.8846983   0.0003141   198.2716777   0.0084602   0.0094353   198.7660583   0.0084435   
03824   198.3413622   0.0084527   0.0094274   198.52608   0.0084359   99.0424299   66.0282866   0.0003148   198.7048673   0.0084602   0.0094375   199.2011908   0.0084435   
03825   198.7765012   0.0084527   0.0094296   198.9624326   0.0084359   99.2603656   66.173577   0.0003155   199.140459   0.0084602   0.0094396   199.6402671   0.0084435   
03826   199.2096373   0.0084528   0.0094318   199.3968821   0.0084359   99.4772633   66.3181755   0.0003162   199.5754297   0.0084602   0.0094418   200.0773476   0.0084435   
03827   199.6351276   0.0084528   0.0094339   199.8231129   0.0084359   99.6899582   66.4599721   0.0003168   200.007505   0.0084602   0.009444   200.5101763   0.0084435   
03828   199.846628   0.0084533   0.0094354   200.0216327   0.0084364   99.789338   66.5262253   0.0003172   200.3925357   0.0084604   0.009446   200.8444051   0.0084437   
03829   200.2815714   0.0084533   0.0094376   200.4577844   0.0084364   100.007156   66.6714373   0.0003178   200.8288359   0.0084604   0.0094481   201.2826623   0.0084437   
03830   200.5571592   0.0084541   0.0094399   200.7450504   0.0084373   100.1505489   66.7670326   0.0003183   201.217552   0.0084604   0.0094501   201.6835523   0.0084437   
03831   200.9423343   0.0084544   0.009442   201.1325831   0.0084375   100.3443449   66.89623   0.0003189   201.6516649   0.0084604   0.0094523   202.1193276   0.0084437   
03832   201.3565936   0.0084545   0.0094442   201.5485805   0.0084376   100.5520687   67.0347125   0.0003195   202.0851261   0.0084604   0.0094544   202.5548549   0.0084437   
03833   193.5732755   0.0085084   0.009459   193.7152847   0.0084915   96.6394529   64.4263019   0.0003073   193.8835006   0.008517   0.0094694   194.1189392   0.0085002   
03834   194.0103709   0.0085084   0.0094612   194.153669   0.0084915   96.8583766   64.5722511   0.000308   194.3188948   0.008517   0.0094715   194.5562433   0.0085002   
03835   194.4462321   0.0085085   0.0094634   194.5908491   0.0084915   97.0766976   64.7177984   0.0003087   194.7341717   0.0085171   0.0094737   194.974857   0.0085003   
03836   194.882083   0.0085085   0.0094656   195.0280484   0.0084915   97.2950304   64.8633536   0.0003093   195.169933   0.0085171   0.0094759   195.4125309   0.0085003   
03837   195.3085345   0.0085085   0.0094678   195.4561577   0.0084916   97.5088422   65.0058948   0.00031   195.6078886   0.0085171   0.0094781   195.8541691   0.0085003   
03838   195.7438527   0.0085085   0.00947   195.8927997   0.0084916   97.726899   65.151266   0.0003107   196.0443177   0.0085171   0.0094803   196.2895164   0.0085003   
03839   196.1795014   0.0085085   0.0094721   196.329768   0.0084916   97.9451134   65.2967423   0.0003114   196.4801477   0.0085171   0.0094825   196.727245   0.0085003   
03840   196.5992425   0.0085087   0.0094744   196.7513378   0.0084917   98.1556732   65.4371155   0.000312   196.9205686   0.0085171   0.0094847   197.1698293   0.0085003   
03841   197.0227877   0.0085087   0.0094766   197.1765238   0.0084918   98.367987   65.578658   0.0003127   197.35981   0.0085171   0.0094869   197.6112691   0.0085003   
03842   197.3898541   0.0085092   0.0094789   197.5463702   0.0084923   98.5527337   65.7018224   0.0003133   197.8152164   0.0085171   0.0094892   198.0697961   0.0085003   
03843   197.8190567   0.0085092   0.0094811   197.9769477   0.0084923   98.7677452   65.8451635   0.000314   198.2523931   0.0085171   0.0094914   198.5053826   0.0085003   
03844   198.2367277   0.0085094   0.0094833   198.3963649   0.0084924   98.9771643   65.9847762   0.0003146   198.6935693   0.0085171   0.0094936   198.9485349   0.0085003   
03845   198.6676694   0.0085094   0.0094855   198.8286836   0.0084925   99.1931056   66.1287371   0.0003153   199.13069   0.0085171   0.0094958   199.3878397   0.0085003   
03846   199.0988803   0.0085094   0.0094877   199.2612748   0.0084925   99.409134   66.272756   0.000316   199.5678304   0.0085171   0.009498   199.8269635   0.0085003   
03847   199.4948679   0.0085097   0.0094899   199.6593622   0.0084928   99.6080191   66.4053461   0.0003166   199.9100811   0.0085175   0.0095002   200.1910041   0.0085008   
03848   199.9170152   0.0085098   0.0094921   200.0830639   0.0084929   99.8196226   66.546415   0.0003173   200.3498568   0.0085175   0.0095024   200.6329057   0.0085008   
03849   194.4889094   0.0085483   0.0095033   194.6284461   0.0085313   97.0948945   64.7299297   0.0003087   194.7771833   0.0085568   0.0095137   195.0464933   0.00854   
03850   194.8969775   0.0085485   0.0095055   195.0387019   0.0085315   97.2998011   64.8665341   0.0003094   195.202232   0.0085569   0.0095159   195.4794857   0.0085401   
03851   195.3263693   0.0085485   0.0095077   195.4695707   0.0085315   97.514961   65.009974   0.00031   195.5885719   0.0085572   0.0095181   195.8712129   0.0085403   
03852   195.7622903   0.0085485   0.0095099   195.9068284   0.0085315   97.7333225   65.1555484   0.0003107   196.0242648   0.0085572   0.0095203   196.3088598   0.0085403   
03853   196.1957416   0.0085485   0.0095121   196.3416544   0.0085315   97.9504704   65.3003136   0.0003114   196.4606948   0.0085572   0.0095225   196.7472489   0.0085403   
03854   194.0217458   0.0085655   0.0095183   194.1782567   0.0085485   96.8699083   64.5799389   0.000308   194.2082156   0.0085743   0.0095286   194.6252592   0.0085574   
03855   194.4558381   0.0085655   0.0095205   194.6136616   0.0085485   97.0873508   64.7249005   0.0003087   194.6445668   0.0085743   0.0095308   195.0634929   0.0085574   
03856   194.8893263   0.0085656   0.0095227   195.0485218   0.0085485   97.3045122   64.8696748   0.0003094   195.0810912   0.0085743   0.009533   195.5017274   0.0085574   
03857   195.3208193   0.0085656   0.0095249   195.4814346   0.0085486   97.5207048   65.0138032   0.0003101   195.5181557   0.0085743   0.0095352   195.9408166   0.0085574   
03858   195.7569135   0.0085656   0.0095271   195.9188215   0.0085486   97.7391298   65.1594199   0.0003107   195.953927   0.0085743   0.0095374   196.3783736   0.0085574   
03859   196.1716952   0.0085657   0.0095293   196.335513   0.0085487   97.9472198   65.2981465   0.0003114   196.3962402   0.0085743   0.0095396   196.8214636   0.0085574   
03860   196.6079574   0.0085658   0.0095315   196.7730276   0.0085487   98.1657079   65.4438052   0.0003121   196.831943   0.0085743   0.0095418   197.259048   0.0085574   
03861   197.0426432   0.0085658   0.0095337   197.2090411   0.0085487   98.3834482   65.5889654   0.0003128   197.267131   0.0085743   0.009544   197.6985999   0.0085574   
03862   197.4797856   0.0085658   0.0095359   197.6474254   0.0085487   98.6023722   65.7349148   0.0003134   197.7025775   0.0085743   0.0095462   198.1359037   0.0085574   
03863   197.8954724   0.0085659   0.0095381   198.0646732   0.0085489   98.8106912   65.8737941   0.0003141   198.1447129   0.0085743   0.0095484   198.5794465   0.0085574   
03864   198.3313374   0.0085659   0.0095403   198.5018051   0.0085489   99.0289921   66.0193281   0.0003148   198.5764352   0.0085743   0.0095506   199.0095253   0.0085575   
03865   198.7655829   0.0085659   0.0095425   198.9373421   0.0085489   99.246497   66.1643313   0.0003155   199.0118777   0.0085743   0.0095527   199.4465648   0.0085575   
03866   199.1934413   0.008566   0.0095447   199.3667388   0.008549   99.460935   66.30729   0.0003161   199.348919   0.0085748   0.0095549   199.7956461   0.0085579   
03867   199.6192447   0.0085661   0.0095469   199.7940334   0.008549   99.674325   66.44955   0.0003168   199.6780404   0.0085754   0.0095571   200.1293935   0.0085585   
03868   200.0375566   0.0085661   0.009549   200.2128235   0.0085491   99.8834646   66.5889764   0.0003175   200.1118553   0.0085754   0.0095593   200.5637664   0.0085585   
03869   200.4256863   0.0085664   0.0095513   200.6030052   0.0085494   100.0783295   66.7188864   0.0003181   200.4573816   0.0085759   0.0095615   200.9122523   0.008559   
03870   200.8388902   0.0085666   0.0095535   201.0180913   0.0085495   100.285713   66.857142   0.0003187   200.898912   0.0085759   0.0095638   201.3562541   0.008559   
03871   201.276054   0.0085666   0.0095557   201.4564756   0.0085495   100.5046371   67.0030914   0.0003194   201.3343841   0.0085759   0.0095659   201.7935582   0.008559   
03872   201.6284787   0.0085671   0.009558   201.8114588   0.00855   100.6819436   67.1212957   0.0003199   201.780299   0.0085759   0.0095682   202.2298862   0.008559   
03873   201.733563   0.0085692   0.0095607   201.9167415   0.0085522   100.7349761   67.1566507   0.0003201   201.701993   0.008579   0.009571   202.1488363   0.0085622   
03874   202.169165   0.0085693   0.0095628   202.3535905   0.0085522   100.9531586   67.3021057   0.0003208   202.1379184   0.008579   0.0095731   202.5866445   0.0085622   
03875   201.1462864   0.0085704   0.0095588   201.2990002   0.0085533   100.4279273   66.9519516   0.0003192   201.0947731   0.0085793   0.009568   201.4733966   0.0085624   
03876   201.5690081   0.0085704   0.009561   201.7235128   0.0085534   100.639848   67.093232   0.0003198   201.5299949   0.0085793   0.0095702   201.9110196   0.0085624   
03877   201.9834232   0.0085705   0.0095632   202.1392407   0.0085535   100.8473261   67.2315507   0.0003205   201.9605423   0.0085793   0.0095724   202.3429646   0.0085624   
03878   202.3166245   0.0085707   0.009565   202.4690555   0.0085536   101.0124256   67.341617   0.000321   202.2212563   0.0085793   0.0095737   202.602421   0.0085624   
03879   202.6762308   0.008571   0.0095671   202.8293988   0.008554   101.192683   67.4617887   0.0003215   202.6470219   0.0085793   0.0095758   203.0278407   0.0085624   
03880   196.9438271   0.0086113   0.0095786   197.0678651   0.0085942   98.3141633   65.5427756   0.0003125   197.6743649   0.0086158   0.0095874   198.10302   0.0085988   
03881   197.3809669   0.0086113   0.0095808   197.5062494   0.0085942   98.5330875   65.688725   0.0003132   198.1098002   0.0086158   0.0095896   198.5403239   0.0085988   
03882   197.7855635   0.0086115   0.009583   197.9130863   0.0085944   98.7361838   65.8241225   0.0003139   198.4850914   0.0086162   0.0095919   198.925749   0.0085992   
03883   198.2201282   0.0086116   0.0095852   198.3490336   0.0085944   98.9538969   65.9692646   0.0003145   198.9211354   0.0086162   0.009594   199.3586288   0.0085992   
03884   198.3806595   0.0086133   0.0095878   198.5159132   0.0085962   99.0375255   66.025017   0.0003148   198.7686799   0.0086195   0.0095966   199.2150582   0.0086025   
03885   198.8178209   0.0086133   0.00959   198.9542976   0.0085962   99.2564494   66.1709662   0.0003155   199.204138   0.0086195   0.0095988   199.6523622   0.0086025   
03886   199.2549839   0.0086133   0.0095922   199.3926819   0.0085962   99.4753734   66.3169156   0.0003162   199.6395976   0.0086195   0.009601   200.0896661   0.0086025   
03887   199.6837352   0.0086134   0.0095944   199.8227814   0.0085963   99.6901695   66.460113   0.0003168   200.0116053   0.0086198   0.0096032   200.4675973   0.0086028   
03888   200.1077587   0.0086135   0.0095966   200.248315   0.0085964   99.9026805   66.601787   0.0003175   200.450978   0.0086198   0.0096054   200.9088463   0.0086028   
03889   200.5335905   0.0086135   0.0095988   200.6756918   0.0085964   100.1160986   66.7440657   0.0003182   200.7439511   0.0086205   0.0096076   201.2088319   0.0086035   
03890   200.9525662   0.0086137   0.009601   201.0962908   0.0085965   100.3261877   66.8841252   0.0003188   201.1844963   0.0086205   0.0096098   201.6517776   0.0086035   
03891   201.3760572   0.0086137   0.0096032   201.5214352   0.0085966   100.5384608   67.0256405   0.0003195   201.6248747   0.0086205   0.009612   202.0909398   0.0086035   
03892   201.8075953   0.0086138   0.0096054   201.9542898   0.0085967   100.7546456   67.1697638   0.0003202   202.0049186   0.0086208   0.0096142   202.4823717   0.0086038   
03893   202.2349532   0.0086138   0.0096076   202.3831437   0.0085967   100.9687322   67.3124881   0.0003208   202.4421815   0.0086208   0.0096164   202.9178581   0.0086038   
03894   202.5933087   0.0086143   0.0096099   202.7439972   0.0085972   101.148732   67.432488   0.0003214   202.7447844   0.0086215   0.0096187   203.2381365   0.0086046   
03895   203.0130462   0.0086145   0.0096122   203.1652365   0.0085973   101.3591543   67.5727695   0.0003221   203.0972854   0.008622   0.0096209   203.5830464   0.008605   
03896   203.0296896   0.0086171   0.0096148   203.188054   0.0085999   101.3694302   67.5796201   0.0003221   202.8879773   0.0086261   0.0096239   203.368638   0.0086091   
03897   203.4228691   0.0086173   0.0096171   203.5828367   0.0086002   101.5666281   67.7110854   0.0003227   203.3287472   0.0086261   0.0096261   203.814761   0.0086091   
03898   203.7006304   0.0086183   0.0096194   203.8615398   0.0086011   101.7021487   67.8014325   0.0003232   203.245107   0.0086289   0.0096285   203.7285722   0.0086119   
03899   204.0827074   0.0086186   0.0096216   204.2449268   0.0086014   101.8935498   67.9290332   0.0003238   203.6729523   0.008629   0.0096307   204.1498117   0.008612   
03900   199.4576445   0.0086515   0.0096313   199.6079012   0.0086343   99.5931008   66.3954005   0.0003166   199.1152715   0.0086615   0.0096404   199.5745233   0.0086445   
03901   199.8727518   0.0086516   0.0096336   200.0251015   0.0086344   99.8013911   66.5342607   0.0003172   199.5601458   0.0086615   0.0096426   200.0092209   0.0086445   
03902   200.3027357   0.0086516   0.0096358   200.4564412   0.0086345   100.0167629   66.6778419   0.0003179   199.9286864   0.0086619   0.0096448   200.3846557   0.0086448   
03903   200.7399266   0.0086516   0.0096379   200.8948255   0.0086345   100.2356868   66.8237912   0.0003186   200.3641801   0.0086619   0.009647   200.8219597   0.0086448   
03904   201.1748682   0.0086517   0.0096401   201.3310414   0.0086345   100.4535328   66.9690219   0.0003193   200.8003674   0.0086619   0.0096492   201.2599166   0.0086448   
03905   201.6112075   0.0086517   0.0096423   201.7685932   0.0086345   100.6720415   67.1146944   0.00032   201.236132   0.0086619   0.0096514   201.6974661   0.0086448   
03906   202.0484033   0.0086517   0.0096445   202.2069776   0.0086345   100.8909653   67.2606435   0.0003206   201.6716298   0.0086619   0.0096536   202.1347703   0.0086448   
03907   202.4781197   0.0086517   0.0096467   202.6380242   0.0086345   101.1062309   67.4041539   0.0003213   202.1094731   0.0086619   0.0096558   202.5742854   0.0086448   
03908   202.9088346   0.0086518   0.0096489   203.0700979   0.0086346   101.321998   67.5479987   0.000322   202.5473761   0.0086619   0.009658   203.0123523   0.0086448   
03909   203.3439896   0.0086518   0.0096511   203.5065219   0.0086346   101.539937   67.6932913   0.0003227   202.9834093   0.0086619   0.0096601   203.4503296   0.0086448   
03910   203.7547448   0.0086519   0.0096533   203.9186936   0.0086348   101.7463008   67.8308672   0.0003233   203.4028248   0.008662   0.0096624   203.8646008   0.008645   
03911   204.172268   0.0086521   0.0096556   204.3377724   0.0086349   101.9555858   67.9703905   0.000324   203.8436086   0.008662   0.0096646   204.3094199   0.008645   
03912   192.5725303   0.0087307   0.0096759   192.6805882   0.0087134   96.1329486   64.0886324   0.0003057   192.066068   0.0087416   0.0096851   192.4969365   0.0087245   
03913   193.0096391   0.0087307   0.009678   193.1189725   0.0087134   96.3518726   64.2345818   0.0003064   192.5014867   0.0087416   0.0096873   192.9342406   0.0087245   
03914   193.4435002   0.0087307   0.0096802   193.5542277   0.0087134   96.5692788   64.3795192   0.0003071   192.9377863   0.0087416   0.0096894   193.3725525   0.0087245   
03915   193.8795624   0.0087307   0.0096824   193.991619   0.0087134   96.7876964   64.525131   0.0003078   193.3735056   0.0087416   0.0096916   193.8101448   0.0087245   
03916   193.9390096   0.0087331   0.0096852   194.0602253   0.0087158   96.8219544   64.5479696   0.0003079   193.9205776   0.0087416   0.0096944   194.3581412   0.0087245   
03917   194.3683751   0.0087331   0.0096874   194.4909803   0.0087159   97.0371889   64.6914593   0.0003086   194.35832   0.0087416   0.0096966   194.7978137   0.0087245   
03918   194.7892592   0.0087333   0.0096896   194.9136198   0.008716   97.2484666   64.8323111   0.0003092   194.7983896   0.0087416   0.0096988   195.2398673   0.0087245   
03919   195.2193884   0.0087333   0.0096918   195.3451508   0.008716   97.4638668   64.9759112   0.0003099   195.2359074   0.0087416   0.009701   195.6790895   0.0087245   
03920   195.656531   0.0087333   0.009694   195.7835351   0.008716   97.6827908   65.1218606   0.0003106   195.6713502   0.0087416   0.0097031   196.1163937   0.0087245   
03921   196.0936754   0.0087333   0.0096962   196.2219195   0.008716   97.9017147   65.2678098   0.0003113   196.1067954   0.0087416   0.0097053   196.5536977   0.0087245   
03922   196.5308215   0.0087333   0.0096984   196.6603038   0.008716   98.1206385   65.413759   0.000312   196.542242   0.0087416   0.0097075   196.9910017   0.0087245   
03923   196.9679694   0.0087333   0.0097005   197.0986881   0.008716   98.3395626   65.5597084   0.0003126   196.97769   0.0087416   0.0097097   197.4283061   0.0087245   
03924   197.394781   0.0087334   0.0097028   197.5270177   0.0087161   98.5535785   65.7023857   0.0003133   197.4162128   0.0087416   0.0097119   197.8687177   0.0087245   
03925   197.8166988   0.0087335   0.009705   197.9503888   0.0087162   98.7651318   65.8434212   0.000314   197.8563577   0.0087416   0.0097141   198.3105021   0.0087245   
03926   198.2430176   0.0087335   0.0097072   198.3782819   0.0087163   98.9789339   65.9859559   0.0003147   198.2953908   0.0087416   0.0097163   198.7498868   0.0087245   
03927   198.5802818   0.0087342   0.0097095   198.7185302   0.0087169   99.1487101   66.09914   0.0003152   198.3099245   0.0087439   0.0097186   198.7622856   0.0087268   
03928   199.013594   0.0087342   0.0097117   199.153156   0.0087169   99.3658116   66.2438744   0.0003159   198.7464812   0.0087439   0.0097208   199.2009243   0.0087268   
03929   199.4456302   0.0087342   0.0097139   199.5865977   0.008717   99.582274   66.3881827   0.0003165   199.1833322   0.0087439   0.009723   199.6397787   0.0087268   
03930   199.8817844   0.0087342   0.0097161   200.0239906   0.008717   99.8007193   66.5338129   0.0003172   199.6191049   0.0087439   0.0097252   200.0773938   0.0087268   
03931   200.2603077   0.0087346   0.0097184   200.4040706   0.0087173   99.9906084   66.6604056   0.0003178   200.0728197   0.0087439   0.0097275   200.5312585   0.0087268   
03932   200.6892258   0.0087347   0.0097206   200.834419   0.0087174   100.2054804   66.8036536   0.0003185   200.5106872   0.0087439   0.0097297   200.9709786   0.0087268   
03933   201.1183382   0.0087347   0.0097228   201.2649297   0.0087175   100.4204768   66.9469845   0.0003192   200.9505265   0.0087439   0.0097318   201.4011208   0.0087268   
03934   201.54404   0.0087348   0.009725   201.6921446   0.0087175   100.6338348   67.0892232   0.0003198   201.3891771   0.0087439   0.009734   201.8355931   0.0087268   
03935   201.9812171   0.0087348   0.0097272   202.130529   0.0087175   100.8527587   67.2351725   0.0003205   201.8246628   0.0087439   0.0097362   202.2728974   0.0087268   
03936   202.4049011   0.0087349   0.0097294   202.5556881   0.0087176   101.0651391   67.3767594   0.0003212   202.264193   0.0087439   0.0097384   202.7142834   0.0087268   
03937   202.8396314   0.0087349   0.0097316   202.9915317   0.0087176   101.2828385   67.5218923   0.0003219   202.6984697   0.0087439   0.0097406   203.1501521   0.0087268   
03938   203.130524   0.0087356   0.0097337   203.2796089   0.0087183   101.4266813   67.6177875   0.0003223   203.1494519   0.0087439   0.0097429   203.5991775   0.0087268   
03939   203.567708   0.0087356   0.0097359   203.7179932   0.0087183   101.6456057   67.7637371   0.000323   203.5849433   0.0087439   0.009745   204.0364817   0.0087268   
03940   203.8774734   0.0087364   0.0097383   204.0297781   0.0087191   101.8006036   67.8670691   0.0003235   204.0553594   0.0087439   0.0097474   204.5076408   0.0087268   
03941   204.2511025   0.0087368   0.0097405   204.4051307   0.0087195   101.9881015   67.9920677   0.0003241   204.5036938   0.0087439   0.0097496   204.9577518   0.0087268   
03942   194.9721972   0.0088002   0.0097575   195.1051048   0.0087829   97.3434856   64.8956571   0.0003095   195.0615369   0.0088084   0.0097668   195.4426062   0.0087912   
03943   195.3904313   0.0088003   0.0097597   195.52512   0.008783   97.5532946   65.0355297   0.0003102   195.5028749   0.0088084   0.009769   195.8854749   0.0087912   
03944   195.8276039   0.0088003   0.0097619   195.9635043   0.008783   97.7722187   65.1814791   0.0003109   195.9383586   0.0088084   0.0097712   196.3227787   0.0087912   
03945   196.259309   0.0088004   0.0097641   196.3966932   0.008783   97.9885881   65.3257254   0.0003116   196.3760832   0.0088084   0.0097733   196.7603393   0.0087912   
03946   196.6964853   0.0088004   0.0097662   196.8350775   0.008783   98.2075122   65.4716748   0.0003122   196.8115701   0.0088084   0.0097755   197.1976432   0.0087912   
03947   197.1336633   0.0088004   0.0097684   197.2734619   0.008783   98.4264365   65.6176243   0.0003129   197.247059   0.0088084   0.0097777   197.6349471   0.0087912   
03948   197.570843   0.0088004   0.0097706   197.7118463   0.008783   98.6453602   65.7635735   0.0003136   197.6825493   0.0088084   0.0097799   198.0722516   0.0087912   
03949   198.0041053   0.0088004   0.0097728   198.1464497   0.0087831   98.8624651   65.9083101   0.0003143   198.1192165   0.0088084   0.0097821   198.510679   0.0087912   
03950   198.4399201   0.0088004   0.009775   198.5835145   0.0087831   99.0807517   66.0538345   0.000315   198.5551343   0.0088084   0.0097843   198.9483716   0.0087912   
03951   198.8722262   0.0088004   0.0097772   199.0171587   0.0087831   99.297214   66.1981426   0.0003157   198.9155905   0.0088088   0.0097865   199.3183839   0.0087916   
03952   199.3082844   0.0088004   0.0097794   199.4544429   0.0087831   99.515604   66.343736   0.0003163   199.3512966   0.0088088   0.0097886   199.7561385   0.0087916   
03953   199.7417815   0.0088004   0.0097816   199.8892111   0.0087831   99.7326607   66.4884405   0.000317   199.7878915   0.0088088   0.0097908   200.1944746   0.0087916   
03954   200.1576614   0.0088006   0.0097838   200.3069104   0.0087833   99.9412635   66.627509   0.0003177   200.2295481   0.0088088   0.009793   200.637924   0.0087916   
03955   200.5710354   0.0088007   0.009786   200.7220303   0.0087834   100.1486458   66.7657638   0.0003183   200.6434211   0.0088089   0.0097953   201.0533824   0.0087918   
03956   200.9979999   0.0088008   0.0097882   201.1503866   0.0087835   100.3625689   66.9083793   0.000319   201.0820295   0.0088089   0.0097975   201.4937527   0.0087918   
03957   201.4058663   0.008801   0.0097905   201.5599635   0.0087837   100.5672677   67.0448451   0.0003196   201.4324562   0.0088094   0.0097997   201.8334293   0.0087923   
03958   201.8430669   0.008801   0.0097927   201.9983479   0.0087837   100.7861914   67.1907943   0.0003203   201.8679651   0.0088094   0.0098019   202.2707339   0.0087923   
03959   202.2638542   0.0088011   0.0097949   202.4206701   0.0087838   100.996969   67.3313127   0.000321   202.3090802   0.0088094   0.0098041   202.7121462   0.0087923   
03960   202.6948651   0.0088011   0.0097971   202.8530612   0.0087838   101.2129332   67.4752888   0.0003216   202.7409013   0.0088095   0.0098063   203.1439484   0.0087923   
03961   203.1069065   0.0088013   0.0097993   203.2668821   0.008784   101.4197214   67.6131476   0.0003223   203.1873744   0.0088095   0.0098085   203.5822109   0.0087923   
03962   203.5090861   0.0088015   0.0098015   203.6708412   0.0087842   101.6213048   67.7475366   0.0003229   203.5263943   0.00881   0.0098107   203.9437129   0.0087928   
03963   203.8607026   0.0088021   0.0098039   204.0249111   0.0087847   101.7992232   67.8661488   0.0003235   203.6227145   0.0088117   0.009813   204.0663535   0.0087945   
03964   196.7745371   0.0088513   0.0098175   196.894454   0.0088339   98.2488381   65.4992254   0.0003124   196.329015   0.0088627   0.0098272   196.6794969   0.0088454   
03965   197.2110979   0.0088513   0.0098197   197.3322662   0.0088339   98.4674815   65.6449877   0.0003131   196.7646457   0.0088627   0.0098294   197.1169894   0.0088454   
03966   197.6482633   0.0088513   0.0098219   197.7706506   0.0088339   98.6864058   65.7909372   0.0003138   197.2001153   0.0088627   0.0098316   197.5542938   0.0088454   
03967   198.084218   0.0088513   0.0098241   198.2078921   0.0088339   98.9047593   65.9365062   0.0003144   197.6351952   0.0088627   0.0098338   197.9912457   0.0088454   
03968   198.5160342   0.0088514   0.0098263   198.6412052   0.008834   99.121198   66.0807987   0.0003151   198.070266   0.0088627   0.0098359   198.428727   0.0088454   
03969   198.9524806   0.0088514   0.0098284   199.0788993   0.008834   99.3397875   66.226525   0.0003158   198.5058587   0.0088627   0.0098381   198.8662062   0.0088454   
03970   199.3886474   0.0088514   0.0098306   199.5163539   0.008834   99.5582454   66.3721636   0.0003165   198.9415205   0.0088627   0.0098403   199.3037238   0.0088454   
03971   199.8214585   0.0088514   0.0098328   199.9504704   0.008834   99.7750005   66.516667   0.0003172   199.2334933   0.0088634   0.0098425   199.6171932   0.0088461   
03972   200.2463436   0.0088515   0.009835   200.3772049   0.0088341   99.9881032   66.6587355   0.0003178   199.6710447   0.0088634   0.0098447   200.0559719   0.0088461   
03973   200.6835223   0.0088515   0.0098372   200.8155892   0.0088341   100.2070271   66.8046847   0.0003185   200.1065285   0.0088634   0.0098469   200.4932757   0.0088461   
03974   201.0937262   0.0088517   0.0098395   201.2278504   0.0088343   100.4129359   66.9419572   0.0003192   200.5509216   0.0088634   0.0098491   200.9408795   0.0088461   
03975   201.5309105   0.0088517   0.0098416   201.6662347   0.0088343   100.63186   67.0879066   0.0003199   200.9864092   0.0088634   0.0098513   201.3781836   0.0088461   
03976   201.9680962   0.0088517   0.0098438   202.1046191   0.0088343   100.8507841   67.2338561   0.0003205   201.4218983   0.0088634   0.0098535   201.8154877   0.0088461   
03977   202.3334447   0.0088521   0.0098461   202.4725158   0.0088347   101.0345673   67.3563782   0.0003211   201.8777623   0.0088634   0.0098558   202.2745415   0.0088461   
03978   202.7612014   0.0088522   0.0098483   202.9020336   0.0088348   101.2490169   67.4993446   0.0003218   202.3169855   0.0088634   0.009858   202.7160543   0.0088461   
03979   203.1949547   0.0088522   0.0098505   203.3375479   0.0088348   101.4665293   67.6443528   0.0003225   202.7523058   0.0088634   0.0098601   203.1532306   0.0088461   
03980   203.6239246   0.0088522   0.0098527   203.7679026   0.0088349   101.6814673   67.7876449   0.0003231   203.1899278   0.0088634   0.0098623   203.5929876   0.0088461   
03981   203.8697626   0.0088535   0.0098552   204.0144587   0.0088361   101.805584   67.8703893   0.0003235   203.6605782   0.0088635   0.0098648   204.0543714   0.0088463   
03982   204.146739   0.0088545   0.0098576   204.2919082   0.0088371   101.9434852   67.9623235   0.000324   203.8594263   0.008865   0.0098673   204.2706543   0.0088477   
03983   196.0310425   0.0089093   0.0098716   196.1474219   0.0088918   97.8752862   65.2501908   0.0003112   195.9506711   0.0089202   0.0098826   196.2208679   0.0089029   
03984   196.468193   0.0089093   0.0098738   196.5858062   0.0088918   98.0942103   65.3961402   0.0003119   196.3861181   0.0089202   0.0098848   196.6581718   0.0089029   
03985   196.9053452   0.0089093   0.009876   197.0241905   0.0088918   98.3131344   65.5420896   0.0003126   196.8215666   0.0089202   0.0098869   197.0954759   0.0089029   
03986   197.3394989   0.0089093   0.0098782   197.4595903   0.0088918   98.5304731   65.6869821   0.0003133   197.2583335   0.0089202   0.0098891   197.533563   0.0089029   
03987   197.7756032   0.0089093   0.0098804   197.8967078   0.0088918   98.7487761   65.8325174   0.000314   197.6933093   0.0089202   0.0098913   197.9703265   0.0089029   
03988   198.2100068   0.0089093   0.0098826   198.3323523   0.0088919   98.9662481   65.9774987   0.0003146   198.1289487   0.0089202   0.0098935   198.4099264   0.0089029   
03989   198.6430053   0.0089093   0.0098848   198.7667008   0.0088919   99.1830984   66.1220656   0.0003153   198.5685511   0.0089202   0.0098957   198.8455504   0.0089029   
03990   199.0635514   0.0089094   0.009887   199.1888576   0.008892   99.3934659   66.2623106   0.000316   199.0089217   0.0089202   0.0098979   199.2879616   0.0089029   
03991   199.4997085   0.0089094   0.0098892   199.6262552   0.008892   99.6118783   66.4079188   0.0003167   199.4292161   0.0089203   0.0099001   199.7104382   0.008903   
03992   199.936874   0.0089094   0.0098914   200.0646395   0.008892   99.8308025   66.5538684   0.0003173   199.8646773   0.0089203   0.0099023   200.147742   0.008903   
03993   200.3704369   0.0089095   0.0098936   200.4991627   0.008892   100.0478055   66.698537   0.000318   200.3024151   0.0089203   0.0099045   200.5866433   0.008903   
03994   200.8019974   0.0089095   0.0098958   200.93212   0.008892   100.2641263   66.8427508   0.0003187   200.7432057   0.0089203   0.0099067   201.0258244   0.008903   
03995   201.2359497   0.0089095   0.009898   201.3672767   0.0088921   100.481435   66.9876233   0.0003194   201.1800509   0.0089203   0.0099088   201.4640046   0.008903   
03996   201.6712099   0.0089095   0.0099001   201.8037502   0.0088921   100.699392   67.132928   0.0003201   201.5835466   0.0089204   0.009911   201.8716809   0.0089031   
03997   202.1038973   0.0089096   0.0099023   202.2376991   0.0088921   100.9160379   67.2773586   0.0003207   202.0206234   0.0089204   0.0099132   202.3110516   0.0089031   
03998   202.540249   0.0089096   0.0099045   202.67529   0.0088921   101.1345892   67.4230595   0.0003214   202.4561968   0.0089204   0.0099154   202.7485052   0.0089031   
03999   202.9565788   0.0089097   0.0099068   203.0936526   0.0088922   101.3435971   67.5623981   0.0003221   202.8616034   0.0089206   0.0099176   203.1533819   0.0089033   
04000   203.3861576   0.0089098   0.009909   203.5250276   0.0088923   101.5588398   67.7058932   0.0003227   203.2982671   0.0089206   0.0099198   203.5927449   0.0089033   
04001   203.6050325   0.0089111   0.0099114   203.7438141   0.0088936   101.6692642   67.7795095   0.0003231   203.3391717   0.0089231   0.0099226   203.6680578   0.0089058   
04002   203.9973247   0.0089114   0.0099136   204.1367245   0.0088939   101.8653327   67.9102218   0.0003237   203.6593447   0.0089238   0.0099249   204.0099216   0.0089064   
04003   204.1532407   0.008913   0.0099161   204.2936169   0.0088956   101.9435545   67.9623696   0.000324   204.1162196   0.008924   0.0099274   204.4632449   0.0089067   
04004   204.5791164   0.0089131   0.0099183   204.7212426   0.0088956   102.1569389   68.1046259   0.0003246   204.5122299   0.0089242   0.0099297   204.8662149   0.0089069   
04005   204.8912896   0.0089138   0.0099205   205.037969   0.0088963   102.3149273   68.2099516   0.0003251   204.7303811   0.0089253   0.0099319   205.1048884   0.008908   
04006   205.0880246   0.0089153   0.0099231   205.2357503   0.0088978   102.4138508   68.2759005   0.0003254   205.1734179   0.0089256   0.0099344   205.5480569   0.0089083   
04007   205.3168037   0.0089162   0.0099251   205.4665573   0.0088988   102.5260069   68.3506713   0.0003258   205.3673412   0.0089267   0.0099364   205.743508   0.0089094   
04008   205.696774   0.0089166   0.0099274   205.8481209   0.0088991   102.7163636   68.4775757   0.0003264   205.8187407   0.0089267   0.0099387   206.1901354   0.0089094   
04009   205.9854128   0.0089174   0.0099296   206.1385486   0.0088999   102.8719165   68.5812777   0.0003269   206.2090918   0.0089271   0.009941   206.5687405   0.0089097   
04010   206.0421611   0.0089198   0.0099323   206.1956872   0.0089023   102.9007957   68.6005305   0.000327   205.5940998   0.0089328   0.0099438   205.9895002   0.0089155   
04011   206.3094023   0.0089209   0.0099348   206.4669296   0.0089034   103.0363512   68.6909008   0.0003274   205.917048   0.0089336   0.0099461   206.3214517   0.0089163   
04012   206.0944084   0.0089246   0.0099374   206.2475843   0.0089071   102.9270619   68.6180413   0.0003271   205.015102   0.0089409   0.0099489   205.4041523   0.0089236   
04013   206.4746642   0.008925   0.0099397   206.6295438   0.0089075   103.1176769   68.7451179   0.0003277   205.4601003   0.0089409   0.0099511   205.851229   0.0089236   
04014   206.635811   0.008926   0.0099415   206.7932646   0.0089085   103.2372039   68.8248026   0.0003281   205.6482129   0.0089417   0.0099529   206.0642482   0.0089244   
04015   206.924778   0.0089266   0.0099435   207.0838819   0.0089091   103.3807412   68.9204941   0.0003286   205.9953032   0.008942   0.009955   206.4185537   0.0089247   
04016   207.3030336   0.0089269   0.0099457   207.463477   0.0089094   103.5692909   69.0461939   0.0003292   206.3771764   0.0089423   0.0099571   206.8006207   0.0089249   
04017   207.5444453   0.0089275   0.0099476   207.7086709   0.00891   103.6915189   69.1276793   0.0003296   206.7087925   0.0089424   0.0099589   207.1329503   0.008925   
04018   197.5267204   0.0089958   0.0099657   197.6551386   0.0089783   98.6709076   65.780605   0.0003138   196.7108853   0.0090109   0.0099772   197.0519711   0.0089935   
04019   197.9639128   0.0089958   0.0099679   198.093523   0.0089783   98.8898318   65.9265546   0.0003145   197.1463744   0.0090109   0.0099794   197.4892752   0.0089935   
04020   198.4011068   0.0089958   0.0099701   198.5319073   0.0089783   99.1087557   66.0725038   0.0003152   197.5818647   0.0090109   0.0099816   197.9265793   0.0089935   
04021   198.8281223   0.0089959   0.0099723   198.9605123   0.0089784   99.3230856   66.2153904   0.0003159   198.000737   0.009011   0.0099838   198.3431826   0.0089936   
04022   199.2561119   0.008996   0.0099745   199.3899658   0.0089784   99.5376319   66.3584213   0.0003166   198.4389513   0.009011   0.009986   198.7832876   0.0089936   
04023   199.6893953   0.008996   0.0099767   199.8245114   0.0089784   99.7547483   66.5031656   0.0003172   198.874809   0.009011   0.0099881   199.2228496   0.0089936   
04024   200.1199661   0.008996   0.0099789   200.2564412   0.0089785   99.9703142   66.6468762   0.0003179   199.2951874   0.0090111   0.0099903   199.6439935   0.0089937   
04025   200.5571697   0.008996   0.009981   200.6948256   0.0089785   100.1892382   66.7928254   0.0003186   199.730686   0.0090111   0.0099925   200.0812972   0.0089937   
04026   200.9934688   0.008996   0.0099832   201.1323423   0.0089785   100.4077481   66.9384987   0.0003193   200.1663243   0.0090111   0.0099947   200.5190252   0.0089937   
04027   201.4213236   0.0089961   0.0099854   201.5616765   0.0089786   100.6220394   67.0813596   0.00032   200.6045815   0.0090111   0.0099969   200.9591092   0.0089937   
04028   201.8585323   0.0089961   0.0099876   202.0000608   0.0089786   100.8409635   67.227309   0.0003206   201.0400846   0.0090111   0.0099991   201.3964132   0.0089937   
04029   202.2957425   0.0089961   0.0099898   202.4384451   0.0089786   101.0598876   67.3732584   0.0003213   201.4755889   0.0090111   0.0100013   201.8337174   0.0089937   
04030   202.7306446   0.0089961   0.009992   202.8745778   0.0089786   101.2776396   67.5184264   0.000322   201.9116038   0.0090111   0.0100035   202.2719282   0.0089937   
04031   203.164821   0.0089961   0.0099942   203.3100391   0.0089786   101.4951024   67.6634016   0.0003227   202.3483007   0.0090111   0.0100056   202.7096177   0.0089937   
04032   203.6020359   0.0089961   0.0099964   203.7484234   0.0089786   101.7140264   67.8093509   0.0003234   202.78381   0.0090111   0.0100078   203.1469218   0.0089937   
04033   204.0373808   0.0089961   0.0099986   204.1849727   0.0089786   101.932051   67.9547007   0.0003241   203.2199012   0.0090111   0.01001   203.5847772   0.0089937   
04034   204.468831   0.0089962   0.0100008   204.6177427   0.0089786   102.1481156   68.0987437   0.0003247   203.6577207   0.0090111   0.0100122   204.0226542   0.0089937   
04035   204.8495344   0.0089965   0.0100031   205.0006214   0.008979   102.3392842   68.2261895   0.0003253   204.1171722   0.0090111   0.0100145   204.4661386   0.0089937   
04036   205.2347504   0.0089969   0.0100053   205.3880082   0.0089793   102.5329663   68.3553109   0.0003259   204.3497726   0.0090122   0.0100167   204.7065122   0.0089948   
04037   205.6345648   0.0089971   0.0100076   205.7895281   0.0089796   102.7335188   68.4890125   0.0003266   204.6849908   0.0090127   0.010019   205.0436667   0.0089953   
04038   206.0665009   0.0089972   0.0100098   206.2227028   0.0089796   102.9498085   68.6332057   0.0003272   205.1224631   0.0090127   0.0100212   205.4819105   0.0089953   
04039   206.4948796   0.0089972   0.0100119   206.6521865   0.0089796   103.1642923   68.7761949   0.0003279   205.5580135   0.0090127   0.0100233   205.9177224   0.0089953   
04040   198.3839286   0.0090145   0.0099886   198.5003027   0.0089969   99.0925699   66.0617132   0.0003152   197.4575052   0.0090229   0.0099928   197.7335436   0.0090055   
04041   198.819948   0.0090145   0.0099908   198.9374684   0.0089969   99.3108814   66.2072542   0.0003159   197.8919387   0.0090229   0.009995   198.1697013   0.0090055   
04042   199.2562029   0.0090145   0.0099929   199.3749633   0.0089969   99.5293496   66.3528997   0.0003165   198.3274192   0.0090229   0.0099971   198.6071003   0.0090055   
04043   199.6933915   0.0090145   0.0099951   199.8133476   0.0089969   99.7482737   66.4988491   0.0003172   198.7629051   0.0090229   0.0099993   199.0444044   0.0090055   
04044   200.092901   0.0090148   0.0099974   200.2179144   0.0089972   99.9503029   66.6335353   0.0003179   199.1943491   0.0090229   0.0100015   199.4829692   0.0090055   
04045   200.5236139   0.0090148   0.0099996   200.6503697   0.0089972   100.1661949   66.7774633   0.0003185   199.6279363   0.0090229   0.0100037   199.9192183   0.0090055   
04046   200.9596599   0.0090148   0.0100017   201.0876416   0.0089972   100.3845919   66.9230613   0.0003192   200.0618839   0.0090229   0.0100058   200.3550435   0.0090055   
04047   201.3850823   0.0090148   0.0100039   201.5140141   0.0089972   100.5974366   67.0649577   0.0003199   200.4857752   0.0090229   0.010008   200.7802477   0.0090055   
04048   201.8188815   0.0090148   0.0100061   201.9499547   0.0089972   100.8150943   67.2100629   0.0003206   200.9205313   0.0090229   0.0100101   201.2171605   0.0090055   
04049   202.2532364   0.0090148   0.0100082   202.385065   0.0089972   101.032325   67.3548834   0.0003212   201.3546705   0.0090229   0.0100123   201.6526268   0.0090055   
04050   202.6716521   0.0090148   0.0100103   202.8056082   0.0089972   101.2423921   67.4949281   0.0003219   201.7616869   0.0090229   0.0100144   202.0641692   0.0090055   
04051   203.0714264   0.0090148   0.0100123   203.2065035   0.0089972   101.4426337   67.6284225   0.0003225   202.1602442   0.0090229   0.0100164   202.464006   0.0090055   
04052   203.505715   0.0090148   0.0100145   203.6420584   0.0089972   101.6601143   67.7734095   0.0003232   202.5951404   0.0090229   0.0100185   202.9009792   0.0090055   
04053   203.9362861   0.0090148   0.0100167   204.0739872   0.0089972   101.8758072   67.9172048   0.0003239   203.0232379   0.0090229   0.0100207   203.3310421   0.0090055   
04054   204.3685398   0.0090148   0.0100189   204.5076035   0.0089972   102.0923351   68.0615568   0.0003246   203.4534781   0.0090229   0.0100228   203.7632989   0.0090055   
04055   204.7829282   0.0090148   0.0100209   204.9238243   0.0089972   102.300441   68.200294   0.0003252   203.857917   0.0090229   0.0100249   204.1714916   0.0090055   
04056   205.2010979   0.0090148   0.010023   205.3427383   0.0089973   102.5095904   68.339727   0.0003259   204.2803596   0.0090229   0.010027   204.5950184   0.0090055   
04057   205.6242907   0.0090148   0.0100252   205.7675068   0.0089973   102.7216641   68.4811094   0.0003265   204.7001703   0.0090229   0.0100291   205.017001   0.0090055   
04058   206.0218009   0.0090151   0.0100274   206.1669637   0.0089975   102.9212964   68.6141976   0.0003272   205.1362146   0.0090229   0.0100313   205.4581697   0.0090055   
04059   206.4464518   0.0090151   0.0100295   206.5931953   0.0089975   103.1341593   68.7561062   0.0003278   205.5598396   0.0090229   0.0100334   205.8845079   0.0090055   
04060   206.8167167   0.0090153   0.0100316   206.9646331   0.0089977   103.3197881   68.8798587   0.0003284   205.9759915   0.0090229   0.0100355   206.3006166   0.0090055   
04061   207.2313775   0.0090155   0.0100338   207.3808122   0.0089979   103.5279399   69.0186266   0.000329   206.4133711   0.0090229   0.0100377   206.7404272   0.0090055   
04062   196.8886722   0.009086   0.0100525   197.0049349   0.0090683   98.3452675   65.5635117   0.0003128   196.2900717   0.0090927   0.0100565   196.520582   0.0090752   
04063   197.3258498   0.009086   0.0100547   197.4433192   0.0090683   98.5641915   65.709461   0.0003135   196.7255396   0.0090927   0.0100587   196.9578863   0.0090752   
04064   197.7555362   0.009086   0.0100569   197.8743936   0.0090684   98.7794523   65.8529682   0.0003142   197.1636319   0.0090927   0.0100609   197.397024   0.0090752   
04065   198.1927176   0.009086   0.0100591   198.3127779   0.0090684   98.9983763   65.9989176   0.0003149   197.5991031   0.0090927   0.0100631   197.8343282   0.0090752   
04066   198.613618   0.0090861   0.0100613   198.7353041   0.0090685   99.2093563   66.1395708   0.0003155   198.0383866   0.0090927   0.0100653   198.2774361   0.0090752   
04067   199.0497706   0.0090861   0.0100635   199.1726757   0.0090685   99.4277748   66.2851832   0.0003162   198.4741467   0.0090927   0.0100675   198.715094   0.0090752   
04068   199.4799848   0.0090862   0.0100657   199.6042818   0.0090685   99.6432999   66.4288666   0.0003169   198.9080347   0.0090927   0.0100697   199.1478183   0.0090752   
04069   199.9171738   0.0090862   0.0100679   200.0426661   0.0090685   99.8622242   66.5748162   0.0003176   199.3435163   0.0090927   0.0100718   199.5851223   0.0090752   
04070   200.3516078   0.0090862   0.0100701   200.4783737   0.0090686   100.0798261   66.7198841   0.0003183   199.77966   0.0090927   0.010074   200.0234079   0.0090752   
04071   200.7888   0.0090862   0.0100722   200.9167581   0.0090686   100.2987501   66.8658334   0.0003189   200.215145   0.0090927   0.0100762   200.4607119   0.0090752   
04072   201.2250858   0.0090862   0.0100744   201.3542524   0.0090686   100.5172356   67.0114904   0.0003196   200.6508141   0.0090927   0.0100784   200.8983707   0.0090752   
04073   201.6274664   0.0090864   0.0100767   201.7584385   0.0090688   100.7192251   67.1461501   0.0003203   201.0667467   0.0090928   0.0100806   201.3180729   0.0090753   
04074   202.0646647   0.0090864   0.0100789   202.1968229   0.0090688   100.9381491   67.2920994   0.0003209   201.5022369   0.0090928   0.0100828   201.7553771   0.0090753   
04075   202.4961943   0.0090865   0.0100811   202.6296526   0.0090688   101.1542565   67.436171   0.0003216   201.939458   0.0090928   0.010085   202.1943505   0.0090753   
04076   202.9326833   0.0090865   0.0100833   203.067334   0.0090688   101.3728358   67.5818906   0.0003223   202.3756912   0.0090928   0.0100872   202.6312912   0.0090753   
04077   203.3668527   0.0090865   0.0100854   203.5027568   0.0090688   101.5902717   67.7268478   0.000323   202.812054   0.0090928   0.0100894   203.0695663   0.0090753   
04078   203.7769518   0.0090867   0.0100877   203.914563   0.009069   101.7958351   67.8638901   0.0003236   203.255292   0.0090928   0.0100916   203.5156694   0.0090753   
04079   204.2108687   0.0090867   0.0100899   204.3497315   0.009069   102.0131398   68.0087598   0.0003243   203.6916404   0.0090928   0.0100938   203.9539556   0.0090753   
04080   204.6296976   0.0090868   0.0100921   204.7701458   0.0090692   102.222972   68.148648   0.000325   204.131245   0.0090928   0.010096   204.39588   0.0090753   
04081   205.0644765   0.0090868   0.0100943   205.2061373   0.0090692   102.4407029   68.2938019   0.0003256   204.5658017   0.0090928   0.0100982   204.8322958   0.0090753   
04082   205.5007804   0.0090868   0.0100965   205.6436484   0.0090692   102.6591813   68.4394542   0.0003263   205.0014341   0.0090928   0.0101003   205.2697798   0.0090753   
04083   205.9175454   0.0090869   0.0100987   206.0619781   0.0090693   102.8680604   68.5787069   0.000327   205.4294559   0.0090929   0.0101025   205.6913775   0.0090754   
04084   205.4468277   0.0090929   0.0101022   205.5806573   0.0090753   102.6279973   68.4186649   0.0003262   204.9037321   0.0090992   0.0101061   205.1760332   0.0090817   
04085   205.8790368   0.0090929   0.0101044   206.0140434   0.0090753   102.8443961   68.5629308   0.0003269   205.3391097   0.0090992   0.0101083   205.6160031   0.0090817   
04086   206.3162347   0.0090929   0.0101066   206.4524278   0.0090753   103.06332   68.70888   0.0003276   205.7745839   0.0090992   0.0101105   206.053307   0.0090817   
04087   206.6318562   0.0090937   0.010109   206.7699038   0.0090761   103.2218385   68.814559   0.0003281   206.1415867   0.0090997   0.0101129   206.4267502   0.0090822   
04088   207.0027038   0.0090942   0.0101113   207.1415167   0.0090765   103.407188   68.9381253   0.0003287   206.4812725   0.0091003   0.0101152   206.765527   0.0090828   
04089   207.4282785   0.0090942   0.0101135   207.5684901   0.0090766   103.620512   69.0803413   0.0003293   206.9094093   0.0091003   0.0101174   207.1863806   0.0090828   
04090   207.3229056   0.0090957   0.0101144   207.4428298   0.0090781   103.5590923   69.0393949   0.0003292   206.5095642   0.0091039   0.0101189   206.7725267   0.0090863   
04091   206.1225317   0.0091061   0.0101188   206.2360477   0.0090884   102.9554865   68.636991   0.0003273   206.0697335   0.0091106   0.0101233   206.3025819   0.009093   
04092   206.4356279   0.0091061   0.0101203   206.5483504   0.0090884   103.111728   68.741152   0.0003278   206.3882491   0.0091106   0.0101249   206.6194002   0.009093   
04093   206.8547982   0.0091062   0.0101225   206.9689371   0.0090885   103.3218462   68.8812308   0.0003284   206.8189779   0.0091106   0.0101271   207.0520609   0.009093   
04094   207.249367   0.0091063   0.0101246   207.3642306   0.0090886   103.5191203   69.0127469   0.0003291   207.2417185   0.0091106   0.0101292   207.4732191   0.009093   
04095   207.6039921   0.0091066   0.0101267   207.7199767   0.009089   103.6969369   69.1312912   0.0003296   207.6723289   0.0091106   0.0101313   207.9038599   0.009093   
04096   207.9743612   0.0091069   0.0101288   208.0928802   0.0090892   103.8832871   69.2555247   0.0003302   208.0910026   0.0091106   0.0101334   208.3203635   0.0090931   
04097   208.3615325   0.0091071   0.010131   208.4810849   0.0090894   104.076702   69.384468   0.0003308   208.4529235   0.0091109   0.0101356   208.6896419   0.0090934   
04098   208.458838   0.0091082   0.0101326   208.5821225   0.0090906   104.1500829   69.4333886   0.0003311   208.4683515   0.0091125   0.0101373   208.7280473   0.009095   
04099   208.8433514   0.0091083   0.0101346   208.967997   0.0090906   104.3389058   69.5592705   0.0003317   208.8203993   0.0091127   0.0101393   209.0846384   0.0090952   
04100   209.0776451   0.0091094   0.0101369   209.2002133   0.0090918   104.4548389   69.6365593   0.0003321   209.1490568   0.0091135   0.0101417   209.3924973   0.009096   
04101   199.5583642   0.0091744   0.0101541   199.6422006   0.0091566   99.682079   66.4547193   0.0003171   199.9624849   0.0091771   0.0101592   200.1448658   0.0091595   
04102   199.9840817   0.0091744   0.0101563   200.0695541   0.0091567   99.8954734   66.5969823   0.0003178   200.3995243   0.0091771   0.0101614   200.5881511   0.0091595   
04103   200.421244   0.0091744   0.0101585   200.5079385   0.0091567   100.1143975   66.7429317   0.0003185   200.8349895   0.0091771   0.0101635   201.0254553   0.0091595   
04104   200.8219913   0.0091747   0.0101607   200.9104645   0.0091569   100.3153329   66.8768886   0.0003191   201.2809401   0.0091771   0.0101658   201.4761566   0.0091595   
04105   201.2584644   0.0091747   0.0101629   201.3481803   0.0091569   100.5339534   67.0226356   0.0003198   201.7165038   0.0091771   0.010168   201.9139983   0.0091595   
04106   201.6956336   0.0091747   0.0101651   201.7865646   0.0091569   100.7528773   67.1685849   0.0003205   202.151975   0.0091771   0.0101702   202.3513024   0.0091595   
04107   202.129315   0.0091747   0.0101673   202.2215967   0.009157   100.9702252   67.3134834   0.0003212   202.5884145   0.0091771   0.0101723   202.7896467   0.0091595   
04108   202.5658085   0.0091747   0.0101695   202.6593225   0.009157   101.1888488   67.4592325   0.0003218   203.0240574   0.0091771   0.0101745   203.2273642   0.0091595   
04109   203.0007847   0.0091747   0.0101717   203.0955866   0.009157   101.4066974   67.6044649   0.0003225   203.4252227   0.0091773   0.0101767   203.63914   0.0091597   
04110   203.4278609   0.0091748   0.0101739   203.5240738   0.009157   101.6207031   67.7471354   0.0003232   203.86387   0.0091773   0.0101789   204.0794782   0.0091597   
04111   203.842324   0.0091749   0.0101761   203.9402699   0.0091572   101.8285028   67.8856686   0.0003238   204.1904687   0.0091779   0.0101811   204.4200439   0.0091603   
04112   204.2536144   0.0091751   0.0101783   204.3528841   0.0091574   102.0345735   68.023049   0.0003245   204.3621846   0.0091792   0.0101834   204.603992   0.0091616   
04113   204.6830053   0.0091751   0.0101805   204.7835865   0.0091574   102.2496754   68.1664502   0.0003252   204.8002361   0.0091792   0.0101855   205.0433165   0.0091616   
04114   205.1075866   0.0091752   0.0101827   205.2094398   0.0091575   102.4626352   68.3084234   0.0003258   205.2404609   0.0091792   0.0101877   205.4850921   0.0091616   
04115   205.5423033   0.0091752   0.0101849   205.6454236   0.0091575   102.6803883   68.4535922   0.0003265   205.6771233   0.0091792   0.0101899   205.9226095   0.0091616   
04116   205.9769682   0.0091752   0.0101871   206.0813472   0.0091575   102.8980488   68.5986992   0.0003272   206.113274   0.0091792   0.0101921   206.3606277   0.0091616   
04117   206.4141584   0.0091752   0.0101893   206.5197315   0.0091575   103.1169728   68.7446485   0.0003279   206.5487632   0.0091792   0.0101943   206.797932   0.0091616   
04118   206.8513501   0.0091752   0.0101915   206.9581158   0.0091575   103.3358968   68.8905978   0.0003286   206.9842528   0.0091792   0.0101965   207.235236   0.0091616   
04119   207.2658233   0.0091754   0.0101937   207.3738047   0.0091577   103.5431641   69.0287761   0.0003292   207.4311055   0.0091792   0.0101987   207.6713862   0.0091616   
04120   207.6983633   0.0091754   0.0101959   207.8074702   0.0091577   103.7596758   69.1731172   0.0003299   207.864543   0.0091792   0.0102009   208.1064482   0.0091616   
04121   208.1303645   0.0091754   0.0101981   208.2406635   0.0091577   103.9759879   69.3173253   0.0003306   208.30163   0.0091792   0.0102031   208.545376   0.0091616   
04122   208.5480533   0.0091756   0.0102003   208.6595412   0.0091578   104.1851566   69.4567711   0.0003312   208.7396572   0.0091792   0.0102053   208.9855753   0.0091616   
04123   202.5961026   0.0092122   0.0102071   202.7229757   0.0091944   101.2214153   67.4809436   0.0003219   203.2852506   0.009219   0.0102178   203.57082   0.0092014   
04124   203.02038   0.0092123   0.0102093   203.1496818   0.0091945   101.4345673   67.6230448   0.0003226   203.7335749   0.009219   0.0102201   204.0207444   0.0092014   
04125   203.4527489   0.0092123   0.0102115   203.583669   0.0091945   101.6512347   67.7674898   0.0003233   204.1725676   0.009219   0.0102223   204.4615277   0.0092014   
04126   203.8723091   0.0092124   0.0102137   204.0057747   0.0091946   101.8618628   67.9079085   0.000324   204.6045583   0.009219   0.0102244   204.8941897   0.0092014   
04127   204.2920965   0.0092125   0.010216   204.427066   0.0091947   102.0722703   68.0481802   0.0003246   204.9978977   0.0092193   0.0102266   205.2856458   0.0092016   
04128   204.7234794   0.0092125   0.0102181   204.8588714   0.0091947   102.2878915   68.1919276   0.0003253   205.4322108   0.0092193   0.0102288   205.7215288   0.0092016   
04129   205.1584172   0.0092125   0.0102203   205.2950365   0.0091948   102.5056987   68.3371324   0.000326   205.8685405   0.0092193   0.010231   206.1595933   0.0092016   
04130   205.594248   0.0092126   0.0102225   205.7321682   0.0091948   102.7239959   68.4826639   0.0003267   206.3035232   0.0092193   0.0102332   206.5963282   0.0092016   
04131   206.0304049   0.0092126   0.0102247   206.169545   0.0091948   102.9424061   68.6282707   0.0003273   206.7388858   0.0092193   0.0102354   207.033587   0.0092016   
04132   206.4676111   0.0092126   0.0102269   206.6079293   0.0091948   103.1613301   68.7742201   0.000328   207.1743946   0.0092193   0.0102375   207.4708909   0.0092016   
04133   206.9002119   0.0092126   0.0102291   207.0424263   0.0091948   103.3782884   68.9188589   0.0003287   207.5434214   0.0092196   0.0102397   207.8514356   0.0092019   
04134   207.3359931   0.0092126   0.0102313   207.4793725   0.0091948   103.5964799   69.0643199   0.0003294   207.9782309   0.0092196   0.0102419   208.287903   0.0092019   
04135   207.7732036   0.0092126   0.0102334   207.9177568   0.0091948   103.815404   69.2102693   0.0003301   208.4137458   0.0092196   0.0102441   208.7252067   0.0092019   
04136   208.2046171   0.0092126   0.0102356   208.3503673   0.0091948   104.0314933   69.3543289   0.0003307   208.8521123   0.0092196   0.0102463   209.1644347   0.0092019   
04137   208.5706304   0.009213   0.0102379   208.7182113   0.0091953   104.215102   69.4767347   0.0003313   209.2555361   0.0092198   0.0102486   209.5617508   0.0092022   
04138   208.9985095   0.0092131   0.0102401   209.1469612   0.0091953   104.4291941   69.6194628   0.000332   209.6938392   0.0092198   0.0102508   210.0002123   0.0092022   
04139   209.3319246   0.0092135   0.0102422   209.4836999   0.0091958   104.5975246   69.731683   0.0003325   210.1044266   0.0092198   0.0102528   210.4161137   0.0092022   
04140   209.6793374   0.0092141   0.0102445   209.8335803   0.0091963   104.7729682   69.8486455   0.0003331   210.5475991   0.0092199   0.0102551   210.8646549   0.0092023   
04141   197.8973887   0.009294   0.0102654   198.0113596   0.0092762   98.8679795   65.9119864   0.0003146   198.9662287   0.009299   0.0102761   199.2582397   0.0092813   
04142   198.3314232   0.0092941   0.0102676   198.4466294   0.0092762   99.0853172   66.0568781   0.0003153   199.4026548   0.009299   0.0102783   199.6964633   0.0092813   
04143   198.7685895   0.0092941   0.0102698   198.8850137   0.0092762   99.3042409   66.2028273   0.000316   199.8381217   0.009299   0.0102805   200.1337677   0.0092813   
04144   199.2026923   0.0092941   0.0102719   199.320463   0.0092762   99.5217349   66.3478233   0.0003166   200.2745002   0.009299   0.0102827   200.5719577   0.0092813   
04145   199.6383753   0.0092941   0.0102741   199.7574056   0.0092762   99.7399562   66.4933041   0.0003173   200.7104184   0.009299   0.0102848   201.0096983   0.0092813   
04146   200.0755469   0.0092941   0.0102763   200.1957899   0.0092762   99.95888   66.6392533   0.000318   201.1458901   0.009299   0.010287   201.4470026   0.0092813   
04147   200.5127201   0.0092941   0.0102785   200.6341742   0.0092762   100.1778041   66.7852027   0.0003187   201.5813633   0.009299   0.0102892   201.8843065   0.0092813   
04148   200.9427209   0.0092941   0.0102807   201.065618   0.0092763   100.3932927   66.9288618   0.0003194   202.019045   0.009299   0.0102914   202.3236616   0.0092813   
04149   201.2765851   0.0092948   0.0102831   201.4030524   0.009277   100.5617636   67.0411757   0.0003199   202.4846052   0.009299   0.0102937   202.7928476   0.0092813   
04150   201.7126479   0.0092948   0.0102852   201.8403665   0.009277   100.7801651   67.1867767   0.0003206   202.9203374   0.009299   0.0102959   203.2305278   0.0092813   
04151   202.1498333   0.0092948   0.0102874   202.2787509   0.009277   100.9990892   67.3327261   0.0003213   203.3558183   0.009299   0.0102981   203.6678319   0.0092813   
04152   202.5870204   0.0092948   0.0102896   202.7171352   0.009277   101.218013   67.4786753   0.0003219   203.7913005   0.009299   0.0103003   204.1051361   0.0092813   
04153   203.0242088   0.0092948   0.0102918   203.1555196   0.009277   101.4369372   67.6246248   0.0003226   204.2267847   0.009299   0.0103025   204.5424401   0.0092813   
04154   203.4556386   0.0092948   0.010294   203.5883673   0.009277   101.6531065   67.7687377   0.0003233   204.6639066   0.009299   0.0103047   204.9814647   0.0092813   
04155   203.8928307   0.0092948   0.0102962   204.0267517   0.009277   101.8720303   67.9146869   0.000324   205.0993934   0.009299   0.0103068   205.4187691   0.0092813   
04156   204.3275395   0.0092949   0.0102984   204.4627016   0.009277   102.0897408   68.0598272   0.0003247   205.5356119   0.009299   0.010309   205.8568278   0.0092813   
04157   204.7562471   0.0092949   0.0103006   204.8928158   0.0092771   102.304522   68.2030147   0.0003253   205.9732139   0.009299   0.0103112   206.2966227   0.0092813   
04158   205.1927224   0.0092949   0.0103028   205.3304799   0.0092771   102.5230976   68.3487317   0.000326   206.4089318   0.009299   0.0103134   206.7341463   0.0092813   
04159   205.52299   0.0092956   0.0103051   205.6628513   0.0092778   102.6890429   68.4593619   0.0003265   206.8766725   0.009299   0.0103157   207.2039007   0.0092813   
04160   205.9154153   0.0092959   0.0103074   206.0574006   0.009278   102.8859641   68.5906427   0.0003272   207.2049383   0.0092996   0.010318   207.5321007   0.0092819   
04161   206.1866896   0.009297   0.0103098   206.3315682   0.0092791   103.0226638   68.6817759   0.0003276   207.0731414   0.0093027   0.0103204   207.3801227   0.009285   
04162   206.6203357   0.009297   0.010312   206.7664235   0.0092791   103.2399467   68.8266311   0.0003283   207.5089707   0.0093027   0.0103226   207.8179878   0.009285   
04163   207.0102157   0.0092973   0.0103143   207.1582695   0.0092794   103.435375   68.9569166   0.0003289   207.7139137   0.0093039   0.0103249   208.0307051   0.0092862   
04164   207.4235431   0.0092974   0.0103165   207.5728681   0.0092796   103.6426049   69.0950699   0.0003295   208.1566075   0.0093039   0.0103271   208.4753874   0.0092862   
04165   207.8465597   0.0092974   0.0103186   207.9950028   0.0092796   103.8535399   69.2356933   0.0003302   208.5864624   0.0093039   0.0103292   208.9045536   0.0092862   
04166   208.2749084   0.0092975   0.0103208   208.4245737   0.0092797   104.0680704   69.3787136   0.0003309   208.9963325   0.009304   0.0103314   209.3161052   0.0092863   
04167   208.7041281   0.0092976   0.010323   208.8550012   0.0092797   104.283027   69.522018   0.0003315   209.4343568   0.009304   0.0103336   209.7557993   0.0092863   
04168   209.1252553   0.0092976   0.0103252   209.2772134   0.0092798   104.4938137   69.6625425   0.0003322   209.8703393   0.009304   0.0103358   210.1929394   0.0092863   
04169   209.5362511   0.0092978   0.0103274   209.6897962   0.0092799   104.7001978   69.8001318   0.0003328   210.3115274   0.009304   0.010338   210.6371836   0.0092863   
04170   209.8282123   0.0092984   0.0103295   209.9831099   0.0092805   104.8463739   69.8975826   0.0003333   210.7013749   0.0093042   0.0103401   211.0317908   0.0092864   
04171   203.7009607   0.0093413   0.0103417   203.8387154   0.0093234   101.7749946   67.8499964   0.0003237   204.2464852   0.0093487   0.0103524   204.6077067   0.009331   
04172   204.1360034   0.0093413   0.0103439   204.2750053   0.0093234   101.9929394   67.995293   0.0003244   204.6826406   0.0093487   0.0103546   205.045647   0.009331   
04173   204.5693264   0.0093413   0.0103461   204.709603   0.0093234   102.2099169   68.1399446   0.000325   205.1082214   0.0093488   0.0103568   205.4618994   0.0093311   
04174   205.0049286   0.0093413   0.0103483   205.1464295   0.0093234   102.4280954   68.2853969   0.0003257   205.499569   0.009349   0.010359   205.8651681   0.0093313   
04175   205.4421446   0.0093413   0.0103505   205.5848139   0.0093234   102.6470193   68.4313462   0.0003264   205.9350919   0.009349   0.0103612   206.3024721   0.0093313   
04176   205.8698568   0.0093414   0.0103527   206.014033   0.0093235   102.8614303   68.5742869   0.0003271   206.3735065   0.009349   0.0103634   206.7425596   0.0093313   
04177   206.3048991   0.0093414   0.0103548   206.4503022   0.0093235   103.0792981   68.7195321   0.0003278   206.8098432   0.009349   0.0103655   207.180173   0.0093313   
04178   206.7245748   0.0093415   0.0103571   206.8715847   0.0093236   103.2897639   68.8598426   0.0003284   207.2524884   0.009349   0.0103678   207.620115   0.0093313   
04179   207.1585439   0.0093415   0.0103593   207.3067775   0.0093237   103.5070402   69.0046935   0.0003291   207.6889938   0.009349   0.0103699   208.0583521   0.0093313   
04180   207.5890211   0.0093416   0.0103615   207.7385933   0.0093237   103.7225361   69.1483574   0.0003298   208.1265231   0.009349   0.0103721   208.4974316   0.0093313   
04181   208.0206161   0.0093416   0.0103637   208.1715026   0.0093237   103.9388208   69.2925472   0.0003305   208.5655278   0.009349   0.0103743   208.9332186   0.0093313   
04182   208.4542905   0.0093417   0.0103658   208.6063881   0.0093238   104.1559921   69.4373281   0.0003311   209.0019774   0.009349   0.0103765   209.3717579   0.0093313   
04183   208.8873782   0.0093417   0.010368   209.0407275   0.0093238   104.3729583   69.5819722   0.0003318   209.4090575   0.0093492   0.0103787   209.7812124   0.0093314   
04184   209.3186507   0.0093417   0.0103702   209.4733137   0.0093238   104.5889584   69.7259722   0.0003325   209.8464188   0.0093492   0.0103809   210.2203915   0.0093314   
04185   209.6021847   0.0093419   0.0103719   209.7519501   0.009324   104.7291223   69.8194149   0.0003329   210.194081   0.0093492   0.0103826   210.5507531   0.0093314   
04186   209.9678587   0.0093419   0.0103737   210.1199025   0.009324   104.9126156   69.9417438   0.0003335   210.5578457   0.0093492   0.0103844   210.9186113   0.0093314   
04187   210.3621966   0.0093422   0.0103759   210.5157134   0.0093243   105.1106151   70.0737434   0.0003341   210.9545731   0.0093494   0.0103867   211.3252109   0.0093316   
04188   210.718359   0.0093425   0.010378   210.87386   0.0093246   105.2970294   70.1980196   0.0003347   211.3700008   0.0093494   0.0103887   211.7404892   0.0093316   
04189   201.313346   0.0094071   0.0103953   201.4162715   0.0093891   100.5734644   67.0489763   0.0003199   201.9318732   0.0094142   0.0104061   202.2709087   0.0093964   
04190   201.7274572   0.0094072   0.0103975   201.8322673   0.0093892   100.7811813   67.1874542   0.0003206   202.3741314   0.0094142   0.0104084   202.7150708   0.0093964   
04191   202.1583177   0.0094073   0.0103997   202.2645552   0.0093893   100.9970611   67.3313741   0.0003213   202.8115153   0.0094142   0.0104106   203.1541903   0.0093964   
04192   202.5954747   0.0094073   0.0104019   202.7029395   0.0093893   101.2159852   67.4773235   0.000322   203.2469637   0.0094142   0.0104127   203.5914941   0.0093964   
04193   203.0326334   0.0094073   0.0104041   203.1413238   0.0093893   101.4349092   67.6232728   0.0003226   203.6824134   0.0094142   0.0104149   204.0287983   0.0093964   
04194   203.4160473   0.0094076   0.0104064   203.5275104   0.0093896   101.627765   67.7518433   0.0003232   204.1336875   0.0094142   0.0104172   204.482777   0.0093964   
04195   203.8491678   0.0094076   0.0104086   203.9619855   0.0093896   101.8447376   67.8964917   0.0003239   204.570401   0.0094142   0.0104194   204.9212432   0.0093964   
04196   204.2748776   0.0094077   0.0104108   204.3891779   0.0093897   102.0580736   68.0387157   0.0003246   205.0096066   0.0094143   0.0104216   205.3606339   0.0093964   
04197   204.7040065   0.0094077   0.010413   204.819752   0.0093898   102.2730953   68.1820636   0.0003253   205.4300281   0.0094143   0.0104238   205.7856399   0.0093965   
04198   205.141178   0.0094077   0.0104152   205.2581364   0.0093898   102.4920192   68.3280128   0.0003259   205.8654861   0.0094143   0.0104259   206.2229437   0.0093965   
04199   205.5783512   0.0094077   0.0104173   205.6965207   0.0093898   102.7109431   68.473962   0.0003266   206.3009457   0.0094143   0.0104281   206.6602481   0.0093965   
04200   206.0147979   0.0094078   0.0104195   206.1342072   0.0093898   102.9295173   68.6196782   0.0003273   206.7027352   0.0094145   0.0104303   207.0688867   0.0093966   
04201   206.4500688   0.0094078   0.0104217   206.5707392   0.0093898   103.1475138   68.7650092   0.000328   207.1396524   0.0094145   0.0104325   207.5034966   0.0093966   
04202   206.883203   0.0094078   0.0104239   207.0052369   0.0093898   103.3644951   68.9096634   0.0003287   207.5544145   0.0094146   0.0104347   207.9186921   0.0093968   
04203   207.3194581   0.0094078   0.0104261   207.4427232   0.0093898   103.5829694   69.055313   0.0003294   207.9902092   0.0094146   0.0104369   208.3561123   0.0093968   
04204   207.7529271   0.0094078   0.0104283   207.8774986   0.0093898   103.8000802   69.2000535   0.00033   208.4267699   0.0094146   0.0104391   208.7945451   0.0093968   
04205   208.1863335   0.0094078   0.0104305   208.3122097   0.0093899   104.0171832   69.3447888   0.0003307   208.8633055   0.0094146   0.0104412   209.2331311   0.0093968   
04206   208.6205313   0.0094079   0.0104327   208.7477237   0.0093899   104.2346581   69.4897721   0.0003314   209.2995948   0.0094146   0.0104434   209.6711739   0.0093968   
04207   208.9206944   0.0094087   0.0104351   209.0513268   0.0093908   104.3862665   69.5908444   0.0003319   209.260723   0.0094172   0.0104458   209.6427895   0.0093993   
04208   209.3360537   0.0094089   0.0104373   209.4681441   0.0093909   104.5944146   69.7296098   0.0003325   209.7029093   0.0094172   0.010448   210.0866203   0.0093993   
04209   209.730942   0.0094092   0.0104396   209.8646835   0.0093912   104.7925135   69.8616757   0.0003331   210.1510139   0.0094172   0.0104503   210.5342858   0.0093993   
04210   202.7570081   0.0094098   0.0104053   202.8835053   0.0093918   101.044916   67.3632773   0.0003243   203.2891445   0.0094172   0.0104159   203.6639173   0.0093993   
04211   203.1888863   0.0094098   0.0104074   203.3159835   0.0093918   101.2610033   67.5073355   0.000325   203.7213863   0.0094172   0.0104181   204.0970986   0.0093993   
04212   203.6222512   0.0094098   0.0104096   203.7505304   0.0093918   101.4779719   67.6519813   0.0003257   204.1532252   0.0094172   0.0104203   204.5306904   0.0093993   
04213   204.0562135   0.0094098   0.0104118   204.1857128   0.0093918   101.6944455   67.796297   0.0003263   204.5881308   0.0094172   0.0104224   204.9673726   0.0093993   
04214   204.4806863   0.0094098   0.0104139   204.6115121   0.0093918   101.9086366   67.9390911   0.000327   205.0177692   0.0094172   0.0104246   205.39883   0.0093993   
04215   204.9130629   0.0094098   0.0104161   205.0445832   0.0093918   102.1249412   68.0832941   0.0003277   205.4518777   0.0094172   0.0104268   205.8344962   0.0093993   
04216   205.3181518   0.00941   0.0104183   205.4510169   0.009392   102.3279412   68.2186275   0.0003283   205.8947084   0.0094172   0.010429   206.2788947   0.0093993   
04217   205.750096   0.00941   0.0104205   205.8837985   0.009392   102.5439386   68.3626257   0.000329   206.3255146   0.0094172   0.0104311   206.711276   0.0093993   
04218   206.1743367   0.0094101   0.0104227   206.3091062   0.0093921   102.7561172   68.5040782   0.0003297   206.7643571   0.0094172   0.0104333   207.1519926   0.0093993   
04219   206.4352814   0.0094112   0.0104252   206.5717668   0.0093932   102.8873879   68.5915919   0.0003301   207.2509488   0.0094172   0.0104358   207.6417311   0.0093993   
04220   206.8689018   0.0094112   0.0104273   207.0067761   0.0093932   103.1090316   68.7393544   0.0003308   207.6835046   0.0094172   0.0104379   208.0761812   0.0093993   
04221   207.2788822   0.0094113   0.0104295   207.4179461   0.0093933   103.3144067   68.8762711   0.0003314   208.113058   0.0094172   0.0104401   208.5076556   0.0093993   
04222   207.6976641   0.0094114   0.0104317   207.8378281   0.0093934   103.5240907   69.0160605   0.0003321   208.5230954   0.0094173   0.0104423   208.9192553   0.0093994   
04223   208.0876877   0.0094115   0.0104337   208.2283127   0.0093935   103.7758589   69.1839059   0.0003329   208.9296163   0.0094173   0.0104443   209.328   0.0093994   
04224   208.502092   0.0094115   0.0104358   208.6433694   0.0093935   103.9834666   69.3223111   0.0003335   209.3457049   0.0094173   0.0104464   209.7447842   0.0093994   
04225   208.9122632   0.0094115   0.0104379   209.0525731   0.0093936   104.2041165   69.469411   0.0003343   209.7701954   0.0094173   0.0104485   210.1689411   0.0093994   
04226   209.2971893   0.0094118   0.01044   209.4395183   0.0093938   104.3911524   69.5941016   0.0003349   210.125738   0.0094176   0.0104507   210.5311178   0.0093998   
04227   209.6189907   0.0094124   0.0104423   209.7636138   0.0093944   104.5529386   69.7019591   0.0003354   210.5406213   0.0094178   0.0104529   210.9466593   0.0093999   
04228   210.026574   0.0094126   0.0104445   210.1728526   0.0093946   104.7572543   69.8381696   0.000336   210.9842429   0.0094178   0.0104551   211.3923337   0.0093999   
04229   210.2952971   0.0094131   0.0104464   210.4441329   0.0093951   104.9265392   69.9510261   0.0003367   211.2770712   0.0094182   0.010457   211.6655507   0.0094003   
04230   202.6955657   0.0094308   0.010426   202.8219665   0.0094128   101.1130505   67.4087003   0.0003249   203.6452528   0.0094348   0.0104354   204.030198   0.0094169   
04231   203.1301232   0.0094308   0.0104282   203.2579401   0.0094128   101.3307297   67.5538198   0.0003256   204.0790282   0.0094348   0.0104375   204.4659564   0.0094169   
04232   203.5673274   0.0094308   0.0104304   203.6963245   0.0094128   101.5496538   67.6997692   0.0003263   204.5145292   0.0094348   0.0104397   204.9032605   0.0094169   
04233   204.0021685   0.0094308   0.0104326   204.1327903   0.0094128   101.7676915   67.8451277   0.000327   204.9494428   0.0094348   0.0104419   205.3399785   0.0094169   
04234   204.4368257   0.0094308   0.0104347   204.5687202   0.0094128   101.9853005   67.9902003   0.0003277   205.3819467   0.0094348   0.0104441   205.7744844   0.0094169   
04235   204.7975246   0.0094311   0.0104369   204.936288   0.0094131   102.1689275   68.1126183   0.0003282   205.7794279   0.0094348   0.0104461   206.176304   0.0094169   
04236   205.2274167   0.0094311   0.010439   205.3674306   0.0094131   102.3841483   68.2560989   0.0003289   206.1974543   0.0094348   0.0104482   206.5974189   0.0094169   
04237   205.6328688   0.0094312   0.0104412   205.776197   0.0094132   102.5876285   68.3917523   0.0003296   206.6095094   0.0094348   0.0104502   207.012903   0.0094169   
04238   206.0424013   0.0094312   0.0104432   206.1871398   0.0094132   102.7927281   68.5284854   0.0003302   207.0133976   0.0094348   0.0104523   207.4194688   0.0094169   
04239   206.4781819   0.0094312   0.0104454   206.6241158   0.0094132   103.0109256   68.6739504   0.0003309   207.4475187   0.0094348   0.0104544   207.8553909   0.0094169   
04240   206.8991451   0.0094313   0.0104475   207.0466604   0.0094133   103.2219378   68.8146252   0.0003315   207.8644988   0.0094348   0.0104565   208.273824   0.0094169   
04241   207.3363643   0.0094313   0.0104497   207.4850447   0.0094133   103.4408618   68.9605745   0.0003322   208.3000136   0.0094348   0.0104587   208.711128   0.0094169   
04242   207.7637889   0.0094313   0.0104519   207.9134109   0.0094133   103.654598   69.1030654   0.0003329   208.7252554   0.0094348   0.0104608   209.1380155   0.0094169   
04243   208.2010108   0.0094313   0.0104541   208.3517953   0.0094133   103.8735222   69.2490148   0.0003336   209.160773   0.0094348   0.010463   209.5753196   0.0094169   
04244   208.6213496   0.0094314   0.0104563   208.7737206   0.0094134   104.0842114   69.3894743   0.0003342   209.5992123   0.0094348   0.0104652   210.0151808   0.0094169   
04245   209.0549699   0.0094314   0.0104584   209.208495   0.0094134   104.301323   69.5342153   0.0003349   210.0369032   0.0094348   0.0104674   210.4492419   0.0094169   
04246   209.4882869   0.0094314   0.0104606   209.6430477   0.0094134   104.5182993   69.6788662   0.0003356   210.4696836   0.0094348   0.0104696   210.8838143   0.0094169   
04247   209.8600864   0.0094318   0.0104629   210.0171309   0.0094138   104.7051614   69.8034409   0.0003362   210.7883984   0.0094355   0.0104718   211.1871903   0.0094176   
04248   210.1995805   0.0094318   0.0104646   210.3536699   0.0094138   104.8751968   69.9167979   0.0003367   211.1467657   0.0094355   0.0104736   211.5393877   0.0094176   
04249   210.5990659   0.0094319   0.0104667   210.7551464   0.0094138   105.0699332   70.0466221   0.0003373   211.5485656   0.0094355   0.0104756   211.9418247   0.0094176   
04250   211.0100783   0.009432   0.0104689   211.167432   0.009414   105.2757515   70.1838343   0.0003379   211.7674752   0.0094365   0.0104778   212.1603393   0.0094187   
04251   211.3854165   0.0094323   0.010471   211.5427529   0.0094143   105.4634261   70.3089507   0.0003385   212.1313569   0.0094369   0.01048   212.5212002   0.0094191   
04252   211.6117868   0.0094328   0.0104727   211.7746575   0.0094148   105.5795917   70.3863944   0.0003389   212.2362423   0.0094379   0.0104815   212.6415062   0.00942   
04253   201.2354825   0.0094334   0.0104213   201.3973593   0.0094153   100.3978386   66.9318924   0.0003227   201.7970632   0.0094383   0.0104297   202.2104787   0.0094204   
04254   201.6726984   0.0094334   0.0104235   201.8357437   0.0094153   100.6167628   67.0778418   0.0003234   202.2325769   0.0094383   0.0104319   202.6477826   0.0094204   
04255   202.1028287   0.0094334   0.0104257   202.2670777   0.0094153   100.8321315   67.221421   0.000324   202.6609077   0.0094383   0.010434   203.0779839   0.0094204   
04256   202.5279763   0.0094334   0.0104278   202.6935902   0.0094153   101.0451035   67.3634023   0.0003247   203.0872446   0.0094383   0.0104361   203.5059475   0.0094204   
04257   202.9075256   0.0094334   0.0104297   203.0748232   0.0094153   101.2355357   67.4903571   0.0003253   203.4634341   0.0094383   0.010438   203.8850202   0.0094204   
04258   203.3438421   0.0094334   0.0104319   203.5123278   0.0094153   101.4540115   67.6360077   0.000326   203.8976829   0.0094383   0.0104402   204.3211078   0.0094204   
04259   203.7810648   0.0094334   0.0104341   203.9507121   0.0094153   101.6729356   67.781957   0.0003267   204.3332037   0.0094383   0.0104424   204.7584118   0.0094204   
04260   204.2170787   0.0094334   0.0104363   204.3874162   0.0094153   101.8910426   67.9273618   0.0003273   204.7681565   0.0094383   0.0104446   205.1950221   0.0094204   
04261   204.6499868   0.0094334   0.0104384   204.8214132   0.0094153   102.1077941   68.0718627   0.000328   205.1989908   0.0094383   0.0104467   205.6275241   0.0094204   
04262   205.071902   0.0094334   0.0104406   205.243833   0.0094154   102.3189265   68.2126177   0.0003287   205.6277384   0.0094383   0.0104489   206.0568614   0.0094204   
04263   205.4901657   0.0094334   0.0104426   205.663291   0.0094154   102.5283454   68.3522303   0.0003293   206.0415532   0.0094383   0.0104509   206.4727187   0.0094204   
04264   205.9245137   0.0094334   0.0104448   206.0988267   0.0094154   102.7458588   68.4972392   0.00033   206.4740843   0.0094383   0.0104531   206.9070942   0.0094204   
04265   206.3617444   0.0094334   0.010447   206.5372111   0.0094154   102.9647833   68.6431888   0.0003307   206.9096126   0.0094383   0.0104553   207.3443984   0.0094204   
04266   206.7903963   0.0094334   0.0104492   206.9669271   0.0094154   103.17945   68.7863   0.0003314   207.3360795   0.0094383   0.0104574   207.7727754   0.0094204   
04267   207.2269712   0.0094334   0.0104513   207.4046781   0.0094154   103.3980701   68.9320467   0.0003321   207.7707239   0.0094383   0.0104596   208.2092521   0.0094204   
04268   207.6468672   0.0094334   0.0104535   207.8263165   0.0094154   103.6087675   69.0725117   0.0003327   208.1811017   0.0094383   0.0104617   208.6235302   0.0094204   
04269   208.084103   0.0094334   0.0104556   208.2647008   0.0094154   103.8276916   69.2184611   0.0003334   208.6166353   0.0094383   0.0104638   209.0608343   0.0094204   
04270   208.5135951   0.0094334   0.0104578   208.6951411   0.0094154   104.042723   69.3618153   0.0003341   209.0475882   0.0094383   0.010466   209.493377   0.0094204   
04271   208.9431624   0.0094334   0.01046   209.125687   0.0094154   104.2577007   69.5051338   0.0003348   209.4829052   0.0094383   0.0104682   209.9302555   0.0094204   
04272   209.3513297   0.0094334   0.010462   209.5351771   0.0094154   104.46226   69.6415067   0.0003354   209.8890139   0.0094383   0.0104702   210.3385247   0.0094204   
04273   209.7717458   0.0094334   0.0104642   209.9566134   0.0094154   104.6726663   69.7817775   0.0003361   210.3097764   0.0094383   0.0104723   210.7603877   0.0094204   
04274   210.1940352   0.0094334   0.0104663   210.3802035   0.0094154   104.8839769   69.9226513   0.0003367   210.7311227   0.0094383   0.0104744   211.1835274   0.0094204   
04275   210.6265786   0.0094334   0.0104684   210.8141864   0.0094154   105.100669   70.0671127   0.0003374   211.1619502   0.0094383   0.0104766   211.6163547   0.0094204   
04276   211.0513997   0.0094335   0.0104706   211.239985   0.0094155   105.3132537   70.2088358   0.0003381   211.598433   0.0094383   0.0104788   212.0516864   0.0094204   
04277   211.364052   0.0094342   0.0104729   211.5529451   0.0094162   105.4693443   70.3128962   0.0003385   212.0200336   0.0094385   0.0104811   212.4740055   0.0094206   
04278   211.3286389   0.0094363   0.0104748   211.5141613   0.0094183   105.4502316   70.3001544   0.0003385   212.1422529   0.0094398   0.010483   212.5730805   0.0094219   
04279   211.7536793   0.0094363   0.0104769   211.940578   0.0094183   105.6632039   70.4421359   0.0003392   212.5670268   0.0094398   0.0104851   213.0009992   0.0094219   
04280   212.1371697   0.0094365   0.0104791   212.3252461   0.0094185   105.8550526   70.5700351   0.0003398   212.9682724   0.0094399   0.0104872   213.3894016   0.009422   
04281   212.4701255   0.0094369   0.0104811   212.6601175   0.0094189   106.0221973   70.6814648   0.0003403   213.3661123   0.0094399   0.0104892   213.7906699   0.009422   
04282   205.0723053   0.009488   0.0104951   205.2305065   0.0094699   102.311284   68.2075227   0.0003287   206.2692767   0.0094897   0.0105034   206.6717445   0.0094718   
04283   205.5032306   0.0094881   0.0104973   205.6627493   0.00947   102.5270795   68.3513863   0.0003293   206.7069373   0.0094897   0.0105056   207.1113863   0.0094718   
04284   205.9404433   0.0094881   0.0104995   206.1011336   0.00947   102.7460037   68.4973358   0.00033   207.1424639   0.0094897   0.0105078   207.5486903   0.0094718   
04285   206.3704042   0.0094881   0.0105017   206.5323402   0.00947   102.9613001   68.6408668   0.0003307   207.5805588   0.0094897   0.01051   207.9880752   0.0094718   
04286   206.8018197   0.0094881   0.0105039   206.9651652   0.0094701   103.1774684   68.784979   0.0003314   208.018366   0.0094897   0.0105122   208.4259268   0.0094718   
04287   207.2255499   0.0094882   0.0105061   207.3911434   0.0094701   103.39021   68.9268067   0.000332   208.4538532   0.0094897   0.0105143   208.8647284   0.0094718   
04288   207.4165268   0.0094898   0.0105086   207.5864568   0.0094717   103.487767   68.9918446   0.0003323   208.7539188   0.0094907   0.0105169   209.1895031   0.0094728   
04289   207.7257931   0.0094906   0.010511   207.8959499   0.0094726   103.6418381   69.0945587   0.0003328   208.7655989   0.0094931   0.0105194   209.1927645   0.0094752   
04290   208.1574906   0.0094907   0.0105132   208.3289214   0.0094726   103.8580984   69.2387323   0.0003335   209.2027206   0.0094931   0.0105215   209.6317666   0.0094752   
04291   208.5942047   0.0094907   0.0105154   208.7668288   0.0094726   104.0767885   69.3845257   0.0003342   209.6382287   0.0094931   0.0105237   210.0691058   0.0094752   
04292   208.747757   0.0094925   0.010518   208.9244758   0.0094744   104.1558087   69.4372058   0.0003344   210.1543969   0.0094931   0.0105263   210.5910798   0.0094752   
04293   209.1633453   0.0094927   0.0105203   209.3415189   0.0094746   104.3640751   69.5760501   0.0003351   210.5852221   0.0094931   0.0105285   211.0257337   0.0094752   
04294   209.5738101   0.0094928   0.0105225   209.7541445   0.0094747   104.5702286   69.7134857   0.0003357   211.0229575   0.0094931   0.0105307   211.467375   0.0094752   
04295   209.9922089   0.0094929   0.0105247   210.1743476   0.0094749   104.7800565   69.853371   0.0003364   211.4334326   0.0094933   0.0105329   211.8785395   0.0094754   
04296   210.4256661   0.009493   0.0105269   210.6089741   0.0094749   104.9970925   69.9980617   0.0003371   211.8700434   0.0094933   0.0105351   212.3178869   0.0094754   
04297   210.8552335   0.009493   0.0105291   211.0398222   0.0094749   105.212269   70.1415127   0.0003377   212.2586539   0.0094935   0.0105373   212.7130901   0.0094756   
04298   211.1954364   0.0094936   0.0105314   211.3818727   0.0094756   105.383031   70.255354   0.0003383   211.9287942   0.0094975   0.0105397   212.3949753   0.0094795   
04299   211.6082583   0.0094938   0.0105336   211.7960527   0.0094757   105.5898331   70.3932221   0.0003389   212.3707584   0.0094975   0.0105419   212.8369078   0.0094795   
04300   212.0369667   0.0094938   0.0105358   212.2259441   0.0094757   105.804565   70.5363767   0.0003396   212.8066561   0.0094975   0.010544   213.2735109   0.0094795   
04301   212.4546093   0.0094939   0.010538   212.6444435   0.0094758   106.0134843   70.6756562   0.0003403   213.1765706   0.0094978   0.0105462   213.6376302   0.0094799   
04302   212.811208   0.0094943   0.0105401   213.0018191   0.0094762   106.1923233   70.7948822   0.0003408   213.1975553   0.0094999   0.0105486   213.714018   0.009482   
04303   212.9420761   0.0094962   0.0105428   213.1324563   0.0094781   106.2596601   70.8397734   0.000341   212.9734494   0.0095037   0.0105512   213.5026555   0.0094857   
04304   213.282492   0.0094968   0.010545   213.4741572   0.0094787   106.4298092   70.9532061   0.0003416   213.1519727   0.009505   0.0105535   213.6922987   0.0094871   
04305   213.6359946   0.0094973   0.0105473   213.8284442   0.0094792   106.6123009   71.0748673   0.0003421   213.6038359   0.009505   0.0105558   214.1453627   0.0094871   
04306   213.8631208   0.0094983   0.0105495   214.0602679   0.0094802   106.7276115   71.151741   0.0003425   213.7347673   0.0095065   0.0105579   214.3027047   0.0094886   
04307   214.1754797   0.009499   0.0105517   214.3741811   0.0094809   106.8847491   71.2564994   0.000343   214.1255008   0.0095068   0.0105602   214.6997722   0.0094888   
04308   203.4706368   0.0095718   0.0105708   203.6361938   0.0095537   101.5188573   67.6792382   0.0003262   203.4517786   0.0095797   0.0105795   203.9230017   0.0095617   
04309   203.907868   0.0095718   0.010573   204.0745781   0.0095537   101.7377811   67.8251874   0.0003269   203.8873175   0.0095797   0.0105816   204.3603058   0.0095617   
04310   204.3419843   0.0095718   0.0105752   204.5099189   0.0095537   101.9551126   67.9700751   0.0003276   204.3236068   0.0095797   0.0105838   204.7987948   0.0095617   
04311   204.7792183   0.0095718   0.0105774   204.9483032   0.0095537   102.1740368   68.1160245   0.0003282   204.7591487   0.0095797   0.010586   205.2360987   0.0095617   
04312   205.2164536   0.0095718   0.0105796   205.3866876   0.0095537   102.3929609   68.2619739   0.0003289   205.1946916   0.0095797   0.0105882   205.6734028   0.0095617   
04313   205.652152   0.0095718   0.0105818   205.8236322   0.0095537   102.6111738   68.4074492   0.0003296   205.63067   0.0095797   0.0105904   206.1109625   0.0095617   
04314   206.0886835   0.0095718   0.010584   206.2613414   0.0095537   102.8297777   68.5531851   0.0003303   206.0668843   0.0095797   0.0105926   206.5479155   0.0095617   
04315   206.5138406   0.0095719   0.0105862   206.6880045   0.0095538   103.0429426   68.6952951   0.000331   206.5098267   0.0095797   0.0105948   206.9834658   0.0095617   
04316   206.945793   0.0095719   0.0105884   207.1212165   0.0095538   103.2593638   68.8395759   0.0003316   206.9481826   0.0095797   0.0105969   207.4207898   0.0095617   
04317   207.3751899   0.009572   0.0105906   207.5519422   0.0095538   103.4744114   68.9829409   0.0003323   207.3860728   0.0095797   0.0105991   207.8605283   0.0095617   
04318   207.8080062   0.009572   0.0105928   207.9860048   0.0095539   103.6911294   69.1274196   0.000333   207.7441446   0.0095801   0.0106013   208.2284731   0.0095621   
04319   208.2452523   0.009572   0.010595   208.4243892   0.0095539   103.9100531   69.2733687   0.0003337   208.1796963   0.0095801   0.0106035   208.6657775   0.0095621   
04320   208.6824997   0.009572   0.0105972   208.8627734   0.0095539   104.1289773   69.4193182   0.0003344   208.6152491   0.0095801   0.0106057   209.1030815   0.0095621   
04321   209.1197484   0.009572   0.0105994   209.3011579   0.0095539   104.3479013   69.5652675   0.000335   209.0508031   0.0095801   0.0106079   209.5403857   0.0095621   
04322   209.5560264   0.009572   0.0106015   209.7385921   0.0095539   104.566356   69.710904   0.0003357   209.4866568   0.0095801   0.0106101   209.9779716   0.0095621   
04323   209.9913059   0.009572   0.0106037   210.1750544   0.0095539   104.7842769   69.8561846   0.0003364   209.9229686   0.0095801   0.0106122   210.4156948   0.0095621   
04324   210.424939   0.0095721   0.0106059   210.6099168   0.0095539   105.0013991   70.0009327   0.0003371   210.3598995   0.0095801   0.0106144   210.853667   0.0095621   
04325   210.8613271   0.0095721   0.0106081   211.0473501   0.0095539   105.219813   70.146542   0.0003378   210.7948863   0.0095801   0.0106166   211.2902585   0.0095621   
04326   211.2985821   0.0095721   0.0106103   211.4857344   0.0095539   105.438737   70.2924913   0.0003385   211.2304461   0.0095801   0.0106188   211.7275627   0.0095621   
04327   211.7110218   0.0095722   0.0106125   211.8998371   0.0095541   105.645592   70.4303947   0.0003391   211.360862   0.0095816   0.010621   211.8700347   0.0095636   
04328   212.1457819   0.0095722   0.0106147   212.3357703   0.0095541   105.8632668   70.5755112   0.0003398   211.7568229   0.0095818   0.0106232   212.2704187   0.0095638   
04329   212.5733725   0.0095723   0.0106169   212.7638761   0.0095541   106.0771617   70.7181078   0.0003405   212.1938662   0.0095818   0.0106254   212.7088506   0.0095638   
04330   213.0000064   0.0095723   0.0106191   213.1916247   0.0095542   106.2907175   70.8604783   0.0003411   212.6337157   0.0095818   0.0106276   213.1489057   0.0095638   
04331   213.4326824   0.0095724   0.0106213   213.6255258   0.0095542   106.5073714   71.0049142   0.0003418   213.0714605   0.0095818   0.0106298   213.5862792   0.0095638   
04332   213.8554637   0.0095725   0.0106235   214.0493882   0.0095543   106.7189258   71.1459505   0.0003425   213.4168844   0.0095823   0.010632   213.9470236   0.0095643   
04333   214.0281893   0.0095741   0.010626   214.2269854   0.0095559   106.8094515   71.206301   0.0003427   213.8020238   0.009583   0.0106346   214.3134656   0.009565   
04334   204.3356905   0.0096167   0.01062   204.5275716   0.0095985   101.9634704   67.9756469   0.0003276   204.3289493   0.0096272   0.0106314   204.8931611   0.0096091   
04335   204.7689454   0.0096168   0.0106222   204.9622495   0.0095985   102.1805392   68.1203595   0.0003283   204.7620221   0.0096272   0.0106335   205.328026   0.0096091   
04336   205.1675259   0.009617   0.0106245   205.3634124   0.0095988   102.3808952   68.2539302   0.0003289   205.2185516   0.0096272   0.0106358   205.7780125   0.0096091   
04337   205.6015398   0.009617   0.0106267   205.7985821   0.0095988   102.5983375   68.3988917   0.0003296   205.6550323   0.0096272   0.010638   206.2164064   0.0096091   
04338   206.0387675   0.009617   0.0106288   206.2369664   0.0095988   102.8172612   68.5448408   0.0003303   206.090575   0.0096272   0.0106402   206.6537105   0.0096091   
04339   206.4759965   0.009617   0.010631   206.6753508   0.0095988   103.0361856   68.6907904   0.000331   206.5261194   0.0096272   0.0106423   207.0910148   0.0096091   
04340   206.9083582   0.009617   0.0106332   207.1097553   0.0095988   103.2532101   68.8354734   0.0003316   206.9601195   0.0096272   0.0106445   207.5271439   0.0096091   
04341   207.3343821   0.0096171   0.0106354   207.5374793   0.0095989   103.466407   68.9776046   0.0003323   207.3946519   0.0096272   0.0106467   207.964152   0.0096091   
04342   207.7707496   0.0096171   0.0106376   207.9750232   0.0095989   103.6848812   69.1232541   0.000333   207.8307503   0.0096272   0.0106489   208.4019766   0.0096091   
04343   208.1636931   0.0096171   0.0106396   208.3657127   0.0095989   103.8806071   69.253738   0.0003336   208.2326069   0.0096272   0.0106509   208.7993126   0.0096091   
04344   208.5997275   0.0096171   0.0106418   208.8029288   0.0095989   104.0989041   69.3992694   0.0003343   208.6688681   0.0096272   0.0106531   209.2371566   0.0096091   
04345   209.0198506   0.0096171   0.0106439   209.2230818   0.0095989   104.3085099   69.5390066   0.0003349   209.0913321   0.0096272   0.0106552   209.6592265   0.0096091   
04346   209.4564846   0.0096171   0.0106461   209.6608651   0.0095989   104.5271536   69.6847691   0.0003356   209.5272955   0.0096272   0.0106574   210.0971264   0.0096091   
04347   209.8937241   0.0096171   0.0106483   210.0992495   0.0095989   104.746078   69.8307187   0.0003363   209.9628492   0.0096272   0.0106596   210.5344305   0.0096091   
04348   210.330136   0.0096171   0.0106504   210.5367412   0.0095989   104.964544   69.9763627   0.000337   210.3977679   0.0096272   0.0106617   210.9709866   0.0096091   
04349   210.7336273   0.0096173   0.0106527   210.9427535   0.0095991   105.1668152   70.1112101   0.0003376   210.8271573   0.0096272   0.0106639   211.4012424   0.0096091   
04350   211.1708713   0.0096173   0.0106549   211.3811378   0.0095991   105.3857393   70.2571595   0.0003383   211.2627139   0.0096272   0.0106661   211.8385463   0.0096091   
04351   211.5838346   0.0096174   0.010657   211.7975018   0.0095992   105.5936426   70.3957617   0.000339   211.6822709   0.0096273   0.0106682   212.2610979   0.0096091   
04352   212.0136096   0.0096174   0.0106592   212.2273803   0.0095992   105.8081026   70.5387351   0.0003396   212.1120301   0.0096273   0.0106704   212.691507   0.0096091   
04353   212.4448042   0.0096175   0.0106614   212.6596769   0.0095992   106.0240498   70.6826999   0.0003403   212.5475079   0.0096273   0.0106726   213.1223341   0.0096092   
04354   212.8787435   0.0096175   0.0106636   213.0958524   0.0095993   106.241981   70.8279873   0.000341   212.9823305   0.0096273   0.0106747   213.5588352   0.0096092   
04355   213.1240313   0.0096184   0.0106657   213.3441164   0.0096001   106.3667914   70.9111943   0.0003414   212.838331   0.0096302   0.0106769   213.4171195   0.009612   
04356   213.5528185   0.0096184   0.0106679   213.7738957   0.0096002   106.5814299   71.0542866   0.000342   213.2614536   0.0096302   0.010679   213.8420271   0.009612   
04357   213.9723675   0.0096185   0.0106701   214.1940103   0.0096003   106.7914936   71.1943291   0.0003427   213.7018185   0.0096302   0.0106812   214.28289   0.009612   
04358   214.3257019   0.009619   0.0106723   214.5484897   0.0096007   106.9686609   71.3124406   0.0003433   213.9638744   0.0096311   0.0106835   214.5487052   0.009613   
04359   208.6090187   0.0096593   0.0106838   208.7881938   0.009641   104.0919021   69.3946014   0.0003342   207.7210898   0.0096745   0.0106955   208.2972686   0.0096563   
04360   209.0340464   0.0096594   0.010686   209.2147732   0.0096411   104.304974   69.5366493   0.0003349   208.1621606   0.0096745   0.0106977   208.7376925   0.0096563   
04361   209.4644115   0.0096594   0.0106882   209.6465781   0.0096411   104.5206266   69.6804177   0.0003356   208.6003552   0.0096745   0.0106999   209.1768968   0.0096563   
04362   209.8912005   0.0096595   0.0106904   210.0747533   0.0096412   104.7344843   69.8229895   0.0003363   209.0397798   0.0096745   0.0107021   209.6169719   0.0096563   
04363   210.3197801   0.0096595   0.0106926   210.5045946   0.0096412   104.9491442   69.9660962   0.0003369   209.4803977   0.0096745   0.0107043   210.0559069   0.0096563   
04364   210.7508826   0.0096596   0.0106948   210.9369343   0.0096413   105.1650949   70.1100633   0.0003376   209.9171703   0.0096745   0.0107065   210.4944744   0.0096563   
04365   211.1868734   0.0096596   0.010697   211.3740872   0.0096413   105.3833895   70.255593   0.0003383   210.3528665   0.0096745   0.0107086   210.9320295   0.0096563   
04366   211.6175785   0.0096596   0.0106992   211.8060739   0.0096413   105.5990986   70.3993991   0.000339   210.7913211   0.0096745   0.0107108   211.3709023   0.0096563   
04367   212.0547985   0.0096596   0.0107014   212.2444582   0.0096413   105.8180226   70.5453484   0.0003397   211.2268499   0.0096745   0.010713   211.8082063   0.0096563   
04368   212.4430154   0.0096599   0.0107037   212.6337171   0.0096416   106.012425   70.67495   0.0003403   211.2984289   0.0096764   0.0107153   211.8960884   0.0096582   
04369   212.8706752   0.00966   0.0107059   213.0626129   0.0096417   106.226495   70.8176634   0.0003409   211.7182023   0.0096765   0.0107175   212.314413   0.0096583   
04370   212.9985677   0.0096619   0.0107085   213.2026505   0.0096436   106.2965113   70.8643409   0.0003411   212.0655592   0.009677   0.0107198   212.672736   0.0096588   
04371   213.0355285   0.0096645   0.0107113   213.2451852   0.0096462   106.3171681   70.8781121   0.0003412   212.5969988   0.009677   0.0107224   213.1823912   0.0096588   
04372   213.4557438   0.0096646   0.0107134   213.6658535   0.0096462   106.5274641   71.0183094   0.0003419   213.0289042   0.009677   0.0107246   213.6148598   0.0096588   
04373   213.6749479   0.0096659   0.0107159   213.8896205   0.0096476   106.6395883   71.0930589   0.0003422   213.3726492   0.0096778   0.010727   213.9419804   0.0096596   
04374   214.1082903   0.0096659   0.0107181   214.3241303   0.0096476   106.8565525   71.2377016   0.0003429   213.8064752   0.0096778   0.0107292   214.3776428   0.0096596   
04375   214.502151   0.0096662   0.0107203   214.7203656   0.0096479   107.0544369   71.3696246   0.0003435   214.1434804   0.0096783   0.0107314   214.7150262   0.0096601   
04376   203.2010956   0.0097292   0.0107266   203.3698488   0.0097109   101.3792523   67.5861682   0.0003261   203.0127101   0.0097407   0.0107379   203.5276378   0.0097224   
04377   203.6382809   0.0097292   0.0107288   203.8082332   0.0097109   101.5981764   67.7321176   0.0003268   203.4481859   0.0097407   0.0107401   203.964942   0.0097224   
04378   204.0738648   0.0097292   0.010731   204.2450691   0.0097109   101.8163692   67.8775794   0.0003275   203.8841574   0.0097407   0.0107423   204.4027109   0.0097224   
04379   204.510335   0.0097293   0.0107332   204.6827687   0.0097109   102.0349534   68.0233023   0.0003282   204.3198595   0.0097407   0.0107445   204.8401823   0.0097224   
04380   204.9426075   0.0097293   0.0107354   205.1163766   0.0097109   102.2514269   68.1676179   0.0003289   204.7567755   0.0097407   0.0107467   205.2789132   0.0097224   
04381   205.3797994   0.0097293   0.0107376   205.5547609   0.0097109   102.4703509   68.3135673   0.0003295   205.1922576   0.0097407   0.0107489   205.7162173   0.0097224   
04382   205.8000846   0.0097294   0.0107398   205.9767115   0.009711   102.6810301   68.4540201   0.0003302   205.5983067   0.0097409   0.0107511   206.1266413   0.0097226   
04383   206.2365299   0.0097294   0.010742   206.4143839   0.009711   102.8995896   68.5997264   0.0003309   206.0340005   0.0097409   0.0107532   206.5641587   0.0097226   
04384   206.6510716   0.0097295   0.0107442   206.8308338   0.0097112   103.1076488   68.7384325   0.0003315   206.475988   0.0097409   0.0107555   207.0080549   0.0097226   
04385   207.0786025   0.0097296   0.0107464   207.2598424   0.0097112   103.3217756   68.8811837   0.0003322   206.8585393   0.0097412   0.0107577   207.3860476   0.0097229   
04386   207.515805   0.0097296   0.0107486   207.6982267   0.0097112   103.5406998   69.0271332   0.0003329   207.2940373   0.0097412   0.0107598   207.8233514   0.0097229   
04387   207.9478562   0.0097296   0.0107508   208.131656   0.0097113   103.7571396   69.1714264   0.0003336   207.6567644   0.0097415   0.010762   208.2004465   0.0097232   
04388   208.3256953   0.00973   0.0107531   208.5119316   0.0097116   103.9469442   69.2979628   0.0003342   207.9650935   0.0097422   0.0107643   208.5203993   0.0097239   
04389   208.7602568   0.00973   0.0107553   208.9477532   0.0097117   104.1645462   69.4430308   0.0003348   208.4013468   0.0097422   0.0107665   208.9585124   0.0097239   
04390   209.16998   0.0097302   0.0107575   209.3594662   0.0097118   104.3702165   69.5801443   0.0003355   208.8448766   0.0097422   0.0107687   209.4038999   0.0097239   
04391   209.603695   0.0097302   0.0107597   209.7944285   0.0097118   104.5874961   69.7249974   0.0003362   209.2832264   0.0097422   0.0107709   209.8397976   0.0097239   
04392   210.039994   0.0097302   0.0107619   210.2319175   0.0097119   104.8059525   69.870635   0.0003369   209.7190075   0.0097422   0.0107731   210.2773847   0.0097239   
04393   210.4747251   0.0097302   0.0107641   210.6678575   0.0097119   105.0236312   70.0157541   0.0003375   210.1553842   0.0097422   0.0107753   210.7152072   0.0097239   
04394   210.8981526   0.0097303   0.0107663   211.0927538   0.009712   105.2359869   70.1573246   0.0003382   210.5950526   0.0097422   0.0107775   211.1543948   0.0097239   
04395   211.3316773   0.0097304   0.0107685   211.5275026   0.009712   105.4530416   70.3020277   0.0003389   211.0317283   0.0097422   0.0107796   211.5927972   0.0097239   
04396   211.7537267   0.0097304   0.0107707   211.9511055   0.0097121   105.6646993   70.4431329   0.0003395   211.4697755   0.0097422   0.0107818   212.0324346   0.0097239   
04397   212.1837651   0.0097305   0.0107729   212.3823176   0.0097121   105.8802267   70.5868178   0.0003402   211.9030718   0.0097422   0.010784   212.4673392   0.0097239   
04398   212.606715   0.0097305   0.010775   212.8066976   0.0097122   106.0921688   70.7281126   0.0003409   212.3330901   0.0097422   0.0107862   212.897716   0.0097239   
04399   213.0377051   0.0097306   0.0107772   213.2389232   0.0097122   106.3079843   70.8719896   0.0003416   212.7692187   0.0097422   0.0107883   213.3356738   0.0097239   
04400   213.43395   0.0097308   0.0107795   213.6368157   0.0097124   106.5067959   71.0045306   0.0003422   213.2188646   0.0097422   0.0107906   213.7791466   0.0097239   
04401   213.8454501   0.009731   0.0107817   214.0498247   0.0097126   106.7132089   71.1421393   0.0003428   213.6283287   0.0097424   0.0107928   214.1877139   0.0097241   
04402   214.0222662   0.0097327   0.0107843   214.2286501   0.0097143   106.8014136   71.2009424   0.0003431   214.1414344   0.0097424   0.0107954   214.7001582   0.0097241   
04403   214.4382548   0.0097328   0.0107865   214.6460695   0.0097144   107.0100318   71.3400212   0.0003437   214.5833876   0.0097424   0.0107976   215.1438859   0.0097241   
04404   214.7566271   0.0097335   0.0107887   214.9679246   0.0097151   107.1708873   71.4472582   0.0003443   214.9885397   0.0097424   0.0107996   215.5530132   0.0097241   
04405   208.5825393   0.0097766   0.0108009   208.7758153   0.0097582   104.0778311   69.3852207   0.0003346   208.623525   0.0097866   0.0108119   209.1494793   0.0097683   
04406   209.0197547   0.0097766   0.0108031   209.2141997   0.0097582   104.296755   69.53117   0.0003353   209.0590539   0.0097866   0.0108141   209.5867835   0.0097683   
04407   209.4526896   0.0097766   0.0108053   209.6484789   0.0097582   104.5136438   69.6757625   0.0003359   209.4959269   0.0097866   0.0108163   210.025061   0.0097683   
04408   209.8876638   0.0097767   0.0108075   210.0846851   0.0097582   104.7314677   69.8209785   0.0003366   209.9321456   0.0097866   0.0108185   210.4630218   0.0097683   
04409   210.3204975   0.0097767   0.0108097   210.5188284   0.0097583   104.9482633   69.9655089   0.0003373   210.3689865   0.0097866   0.0108206   210.9015874   0.0097683   
04410   210.7544563   0.0097767   0.0108119   210.9540677   0.0097583   105.165685   70.1104567   0.000338   210.8055294   0.0097866   0.0108228   211.3397994   0.0097683   
04411   211.1898045   0.0097767   0.0108141   211.3906325   0.0097583   105.3836914   70.2557943   0.0003387   211.2414551   0.0097866   0.010825   211.7778918   0.0097683   
04412   211.6165605   0.0097768   0.0108163   211.8187046   0.0097584   105.5972731   70.3981821   0.0003393   211.680375   0.0097866   0.0108272   212.2180973   0.0097683   
04413   212.0537868   0.0097768   0.0108185   212.2570889   0.0097584   105.8161972   70.5441314   0.00034   212.1159129   0.0097866   0.0108294   212.6554014   0.0097683   
04414   212.489964   0.0097768   0.0108207   212.6944258   0.0097584   106.0345804   70.6897202   0.0003407   212.5518351   0.0097866   0.0108316   213.0929204   0.0097683   
04415   212.9233648   0.0097768   0.0108229   213.1290562   0.0097584   106.2515379   70.8343586   0.0003414   212.9885868   0.0097866   0.0108338   213.5313316   0.0097683   
04416   213.354657   0.0097768   0.0108251   213.5616133   0.0097584   106.4676047   70.9784031   0.0003421   213.4258183   0.0097866   0.010836   213.9705343   0.0097683   
04417   213.7867674   0.0097769   0.0108273   213.995006   0.0097585   106.6841131   71.1227421   0.0003427   213.8627905   0.0097866   0.0108381   214.4094702   0.0097683   
04418   214.2226354   0.0097769   0.0108295   214.4320317   0.0097585   106.9023591   71.2682394   0.0003434   214.2987573   0.0097866   0.0108403   214.8471835   0.0097683   
04419   214.6526882   0.0097769   0.0108317   214.8633258   0.0097585   107.1176782   71.4117855   0.0003441   214.7346238   0.0097866   0.0108425   215.2843342   0.0097683   
04420   215.0760275   0.009777   0.0108339   215.2880044   0.0097586   107.329631   71.5530873   0.0003448   215.1720594   0.0097866   0.0108447   215.7246482   0.0097683   
04421   215.4485129   0.0097774   0.0108361   215.6619967   0.009759   107.5165637   71.6777092   0.0003453   215.5752321   0.0097868   0.010847   216.1336502   0.0097685   
04422   203.5486915   0.009858   0.0108571   203.7297345   0.0098396   101.5561312   67.7040875   0.0003267   203.2289923   0.0098701   0.0108682   203.6478363   0.0098517   
04423   203.9830036   0.009858   0.0108593   204.1652984   0.0098396   101.7736676   67.8491117   0.0003274   203.665335   0.0098701   0.0108704   204.0860459   0.0098517   
04424   204.4192141   0.009858   0.0108615   204.6027413   0.0098396   101.9921231   67.9947487   0.0003281   204.1011378   0.0098701   0.0108725   204.5236405   0.0098517   
04425   204.8489912   0.0098581   0.0108637   205.0337486   0.0098396   102.2073638   68.1382425   0.0003287   204.5389878   0.0098701   0.0108747   204.9631444   0.0098517   
04426   205.2848703   0.0098581   0.0108659   205.4708534   0.0098396   102.425651   68.2837673   0.0003294   204.9748897   0.0098701   0.0108769   205.4008663   0.0098517   
04427   205.7198107   0.0098581   0.0108681   205.9070602   0.0098396   102.6434836   68.4289891   0.0003301   205.4110957   0.0098701   0.0108791   205.8388106   0.0098517   
04428   206.1434653   0.0098582   0.0108703   206.3323386   0.0098397   102.8559127   68.5706085   0.0003308   205.7979932   0.0098703   0.0108813   206.2375971   0.009852   
04429   206.5806789   0.0098582   0.0108725   206.7707229   0.0098397   103.0748365   68.7165577   0.0003314   206.2335266   0.0098703   0.0108835   206.6749014   0.009852   
04430   207.0032936   0.0098583   0.0108747   207.1948987   0.0098398   103.2866609   68.8577739   0.0003321   206.6279961   0.0098705   0.0108857   207.07959   0.0098522   
04431   207.4283802   0.0098584   0.0108769   207.6214089   0.0098399   103.4996399   68.9997599   0.0003328   207.067178   0.0098705   0.0108879   207.5205107   0.0098522   
04432   207.8639188   0.0098584   0.0108791   208.0581285   0.0098399   103.7177342   69.1451561   0.0003335   207.5032012   0.0098705   0.0108901   207.9583728   0.0098522   
04433   208.3011394   0.0098584   0.0108813   208.4965128   0.0098399   103.9366582   69.2911055   0.0003341   207.9387404   0.0098705   0.0108923   208.3956768   0.0098522   
04434   208.7287928   0.0098584   0.0108835   208.925602   0.00984   104.1509672   69.4339782   0.0003348   208.3770693   0.0098705   0.0108944   208.8359066   0.0098522   
04435   209.158701   0.0098585   0.0108857   209.3568161   0.00984   104.3663337   69.5775558   0.0003355   208.8148193   0.0098705   0.0108966   209.2754437   0.0098522   
04436   209.5704396   0.0098586   0.0108879   209.770347   0.0098402   104.5728528   69.7152352   0.0003361   209.2582252   0.0098705   0.0108989   209.7199557   0.0098522   
04437   210.0046181   0.0098587   0.0108901   210.205741   0.0098402   104.7902741   69.8601827   0.0003368   209.6939149   0.0098705   0.010901   210.1582799   0.0098522   
04438   210.4384493   0.0098587   0.0108923   210.6408442   0.0098402   105.0075556   70.0050371   0.0003375   210.130516   0.0098705   0.0109032   210.5964329   0.0098522   
04439   210.8730282   0.0098587   0.0108945   211.0766549   0.0098402   105.225197   70.1501313   0.0003382   210.5668735   0.0098705   0.0109054   211.0343865   0.0098522   
04440   211.2977856   0.0098588   0.0108967   211.5028329   0.0098403   105.4380348   70.2920232   0.0003388   211.0071265   0.0098705   0.0109076   211.4740514   0.0098522   
04441   211.7231603   0.0098589   0.0108989   211.9295992   0.0098404   105.6511672   70.4341115   0.0003395   211.4461911   0.0098705   0.0109098   211.9149446   0.0098522   
04442   212.1063314   0.0098592   0.0109012   212.3144754   0.0098407   105.8432427   70.5621618   0.0003401   211.8984652   0.0098705   0.0109121   212.367888   0.0098522   
04443   212.5413823   0.0098592   0.0109034   212.7507305   0.0098408   106.0611076   70.7074051   0.0003408   212.3346795   0.0098705   0.0109143   212.8053839   0.0098522   
04444   212.9525036   0.0098594   0.0109056   213.1634539   0.0098409   106.2672006   70.8448004   0.0003414   212.7785359   0.0098705   0.0109165   213.2470586   0.0098522   
04445   213.3154878   0.0098599   0.0109079   213.5303073   0.0098414   106.4499994   70.9666663   0.000342   213.2295887   0.0098705   0.0109188   213.7003036   0.0098522   
04446   213.7438527   0.0098599   0.0109101   213.9600126   0.0098415   106.6647949   71.1098632   0.0003427   213.6670473   0.0098705   0.0109209   214.1399335   0.0098522   
04447   214.1763596   0.0098599   0.0109123   214.3935112   0.0098415   106.8814198   71.2542799   0.0003434   214.1008327   0.0098705   0.0109231   214.5753161   0.0098522   
04448   214.2467827   0.0098623   0.010915   214.4626754   0.0098439   106.9160733   71.2773822   0.0003435   214.2246227   0.0098726   0.0109259   214.7063815   0.0098543   
04449   208.6100851   0.0098625   0.010887   208.8121746   0.0098441   104.0963916   69.3975944   0.0003346   208.6578211   0.0098726   0.010898   209.1181352   0.0098543   
04450   209.0467303   0.0098625   0.0108892   209.2499772   0.0098441   104.3150258   69.5433505   0.0003353   209.092777   0.0098726   0.0109002   209.5548567   0.0098543   
04451   209.4747978   0.0098625   0.0108913   209.6791495   0.0098441   104.5293867   69.6862578   0.000336   209.5200146   0.0098726   0.0109023   209.9836329   0.0098543   
04452   209.9109492   0.0098625   0.0108935   210.1164514   0.0098441   104.7477564   69.8318376   0.0003367   209.9549609   0.0098726   0.0109045   210.4202241   0.0098543   
04453   210.3452418   0.0098625   0.0108957   210.5518964   0.0098441   104.9652337   69.9768225   0.0003374   210.3888806   0.0098726   0.0109067   210.8560275   0.0098543   
04454   210.7734792   0.0098626   0.0108979   210.9813823   0.0098441   105.1797265   70.1198177   0.000338   210.8223455   0.0098726   0.0109088   211.291044   0.0098543   
04455   211.1904773   0.0098626   0.0109   211.3997475   0.0098441   105.3885759   70.2590506   0.0003387   211.2491501   0.0098726   0.010911   211.7185027   0.0098543   
04456   211.6008047   0.0098626   0.0109021   211.8087247   0.0098441   105.5926011   70.3950674   0.0003393   211.6735905   0.0098726   0.0109131   212.1413899   0.0098543   
04457   211.9691322   0.009863   0.0109043   212.178761   0.0098445   105.7772821   70.5181881   0.0003399   212.0917149   0.0098726   0.0109152   212.5653868   0.0098543   
04458   212.4043341   0.009863   0.0109065   212.6151069   0.0098445   105.9951718   70.6634479   0.0003406   212.5278645   0.0098726   0.0109174   213.0034866   0.0098543   
04459   212.8322717   0.0098631   0.0109087   213.0444653   0.0098446   106.2095924   70.806395   0.0003413   212.9652957   0.0098726   0.0109196   213.4432135   0.0098543   
04460   213.2246964   0.0098633   0.0109109   213.4388501   0.0098448   106.4064601   70.9376401   0.0003419   213.3976032   0.0098726   0.0109217   213.8745144   0.0098543   
04461   213.6434059   0.0098633   0.010913   213.858952   0.0098449   106.6162094   71.0774729   0.0003425   213.8232718   0.0098726   0.0109239   214.3018051   0.0098543   
04462   214.0378697   0.0098636   0.0109152   214.2548541   0.0098451   106.8139393   71.2092929   0.0003431   214.2667598   0.0098726   0.0109261   214.7477506   0.0098543   
04463   214.3559535   0.0098644   0.0109176   214.5743916   0.0098459   106.9736854   71.3157903   0.0003436   214.7394484   0.0098726   0.0109284   215.2212019   0.0098543   
04464   214.7745263   0.0098644   0.0109198   214.9941434   0.009846   107.1833929   71.4555953   0.0003443   215.1048278   0.009873   0.0109306   215.5982164   0.0098546   
04465   215.0450055   0.0098647   0.0109213   215.2618443   0.0098462   107.3175971   71.5450648   0.0003447   215.4633977   0.009873   0.0109324   215.9523104   0.0098546   
04466   215.468138   0.0098647   0.0109235   215.686292   0.0098463   107.5294893   71.6863262   0.0003454   215.9037578   0.009873   0.0109346   216.3881249   0.0098546   
04467   214.3320311   0.0098659   0.0109191   214.5577055   0.0098475   107.0861324   71.390755   0.0003437   214.2635615   0.009877   0.0109306   214.8307624   0.0098586   
04468   214.7505072   0.009866   0.0109213   214.9775427   0.0098476   107.2954124   71.530275   0.0003444   214.6873319   0.0098771   0.0109328   215.2613508   0.0098587   
04469   207.8186373   0.0099142   0.0109347   208.0100404   0.0098957   103.8546686   69.2364458   0.0003336   207.9221192   0.009925   0.0109468   208.4810797   0.0099066   
04470   208.255859   0.0099142   0.0109369   208.4484247   0.0098957   104.0735927   69.3823951   0.0003343   208.357656   0.009925   0.010949   208.9183838   0.0099066   
04471   208.6813901   0.0099143   0.0109391   208.8754959   0.0098958   104.2867735   69.5245157   0.000335   208.7962436   0.009925   0.0109512   209.3588851   0.0099066   
04472   209.1036243   0.0099144   0.0109413   209.2989204   0.0098959   104.4979788   69.6653192   0.0003356   209.1778286   0.0099253   0.0109534   209.7378279   0.0099069   
04473   209.5392155   0.0099144   0.0109435   209.7357118   0.0098959   104.7160607   69.8107071   0.0003363   209.6138406   0.0099253   0.0109556   210.1756124   0.0099069   
04474   209.9764442   0.0099144   0.0109457   210.1740961   0.0098959   104.9349849   69.9566566   0.000337   210.0493838   0.0099253   0.0109578   210.6129166   0.0099069   
04475   210.4060577   0.0099145   0.0109479   210.6051891   0.009896   105.1503342   70.1002228   0.0003377   210.4864311   0.0099253   0.01096   211.0517541   0.0099069   
04476   210.8408424   0.0099145   0.0109501   211.0411875   0.009896   105.3680349   70.2453566   0.0003384   210.9241341   0.0099253   0.0109621   211.4898035   0.0099069   
04477   211.2396555   0.0099147   0.0109523   211.4411653   0.0098962   105.5677116   70.3784744   0.000339   211.3897743   0.0099253   0.0109645   211.9484157   0.0099069   
04478   211.6751771   0.0099147   0.0109545   211.8778812   0.0098962   105.7858635   70.523909   0.0003397   211.8258852   0.0099253   0.0109667   212.386264   0.0099069   
04479   212.1097579   0.0099148   0.0109567   212.3138167   0.0098962   106.0034957   70.6689971   0.0003404   212.2617332   0.0099253   0.0109688   212.82401   0.0099069   
04480   212.5423224   0.0099148   0.0109589   212.7476552   0.0098963   106.2200745   70.813383   0.000341   212.6983597   0.0099253   0.010971   213.2625313   0.0099069   
04481   212.9157365   0.0099152   0.0109612   213.1256912   0.0098967   106.4091696   70.9394464   0.0003416   213.1437562   0.0099253   0.0109733   213.7145166   0.0099069   
04482   213.2843955   0.0099156   0.0109635   213.4978035   0.0098971   106.59514   71.0634267   0.0003422   213.5282652   0.0099257   0.0109756   214.1048927   0.0099072   
04483   213.7082205   0.0099157   0.0109657   213.9233779   0.0098972   106.8073761   71.2049174   0.0003429   213.966956   0.0099257   0.0109778   214.545992   0.0099072   
04484   214.1422707   0.0099157   0.0109678   214.3579132   0.0098972   107.024374   71.3495827   0.0003436   214.4012629   0.0099257   0.0109799   214.9818296   0.0099072   
04485   214.5737224   0.0099157   0.01097   214.7906991   0.0098972   107.240517   71.493678   0.0003442   214.836187   0.0099257   0.0109821   215.4186672   0.0099072   
04486   215.0077003   0.0099158   0.0109722   215.2258874   0.0098972   107.4578054   71.638537   0.0003449   215.2736896   0.0099257   0.0109843   215.8579678   0.0099072   
04487   215.4296848   0.0099159   0.0109744   215.6493577   0.0098973   107.6693859   71.7795906   0.0003456   215.6784934   0.0099259   0.0109865   216.2573541   0.0099075   
04488   215.8495645   0.0099159   0.0109766   216.0705233   0.0098974   107.8747293   71.9164862   0.0003463   216.1008599   0.0099259   0.0109887   216.674487   0.0099075   
04489   216.2126189   0.0099161   0.0109785   216.4337018   0.0098975   108.0518485   72.0345656   0.0003469   216.4561995   0.0099262   0.0109907   217.0292543   0.0099077   
04490   216.3807685   0.0099176   0.0109809   216.6058931   0.0098991   108.1380189   72.0920126   0.0003471   216.8463214   0.0099265   0.010993   217.4121007   0.0099081   
04491   216.5750862   0.009919   0.0109833   216.7979103   0.0099005   108.2336347   72.1557565   0.0003475   217.0910929   0.009928   0.0109956   217.632721   0.0099096   
04492   216.9207952   0.0099192   0.0109853   217.1447916   0.0099007   108.4062633   72.2708422   0.000348   217.2522076   0.0099292   0.0109976   217.793611   0.0099108   
04493   217.1811758   0.0099201   0.0109875   217.4061955   0.0099016   108.536951   72.3579673   0.0003484   217.5501154   0.0099299   0.0109998   218.0740452   0.0099115   
04494   217.5050034   0.0099208   0.0109898   217.7322917   0.0099023   108.7071179   72.471412   0.0003489   217.9424075   0.0099304   0.0110022   218.4541151   0.0099119   
04495   205.8354604   0.0100001   0.0110105   206.0147441   0.0099815   102.855019   68.5700126   0.0003306   206.1771064   0.0100106   0.0110234   206.6373116   0.0099921   
04496   206.2726779   0.0100001   0.0110127   206.4531285   0.0099815   103.0739426   68.7159617   0.0003313   206.6126462   0.0100106   0.0110256   207.0746155   0.0099921   
04497   206.7098967   0.0100001   0.0110149   206.8915128   0.0099815   103.2928668   68.8619112   0.000332   207.0481866   0.0100106   0.0110278   207.5119197   0.0099921   
04498   207.1449469   0.0100001   0.0110171   207.3278237   0.0099815   103.510745   69.0071633   0.0003327   207.4843331   0.0100106   0.01103   207.9498986   0.0099921   
04499   207.5814028   0.0100001   0.0110193   207.7654629   0.0099815   103.7292998   69.1528666   0.0003334   207.9200911   0.0100106   0.0110321   208.38745   0.0099921   
04500   208.0097153   0.0100002   0.0110215   208.1952148   0.0099816   103.9438861   69.2959241   0.000334   208.2441759   0.0100111   0.0110343   208.7274862   0.0099926   
04501   208.4412881   0.0100002   0.0110237   208.6280922   0.0099816   104.1600303   69.4400202   0.0003347   208.6813579   0.0100111   0.0110365   209.1665278   0.0099926   
04502   208.8738473   0.0100002   0.0110259   209.0618979   0.0099817   104.3766638   69.5844425   0.0003354   209.1183167   0.0100111   0.0110387   209.6052292   0.0099926   
04503   209.3059345   0.0100003   0.0110281   209.4952599   0.0099817   104.5930222   69.7286815   0.0003361   209.5559626   0.0100111   0.0110409   210.0430334   0.0099926   
04504   209.7398835   0.0100003   0.0110303   209.9304663   0.0099817   104.8103448   69.8735632   0.0003368   209.9920757   0.0100111   0.0110431   210.4819513   0.0099926   
04505   210.1745935   0.0100003   0.0110325   210.366379   0.0099817   105.0280426   70.0186951   0.0003374   210.4283819   0.0100111   0.0110453   210.9200222   0.0099926   
04506   210.6070588   0.0100003   0.0110347   210.8001301   0.0099818   105.244661   70.1631073   0.0003381   210.7689795   0.0100116   0.0110475   211.2756477   0.0099931   
04507   211.0417283   0.0100004   0.0110369   211.2360115   0.0099818   105.4622916   70.3081944   0.0003388   211.205182   0.0100116   0.0110497   211.7138778   0.0099931   
04508   211.4655222   0.0100004   0.0110391   211.6613771   0.0099819   105.6747443   70.4498295   0.0003395   211.6448111   0.0100116   0.0110519   212.1551813   0.0099931   
04509   211.8880336   0.0100005   0.0110413   212.0853861   0.009982   105.8864937   70.5909958   0.0003401   212.0407443   0.0100118   0.0110541   212.5562231   0.0099933   
04510   212.3177559   0.0100006   0.0110435   212.5162644   0.009982   106.1017143   70.7344762   0.0003408   212.4795629   0.0100118   0.0110563   212.9959688   0.0099933   
04511   212.7383979   0.0100007   0.0110457   212.938282   0.0099821   106.312501   70.8750007   0.0003415   212.9201014   0.0100118   0.0110585   213.4383589   0.0099933   
04512   213.1685276   0.0100007   0.0110479   213.3696966   0.0099822   106.5279045   71.018603   0.0003421   213.3576186   0.0100118   0.0110607   213.87777   0.0099933   
04513   213.5880844   0.0100009   0.0110501   213.7907275   0.0099823   106.7381647   71.1587764   0.0003428   213.7996569   0.0100118   0.0110629   214.3197689   0.0099933   
04514   214.0008142   0.010001   0.0110523   214.2052009   0.0099824   106.9451646   71.2967764   0.0003434   214.2426159   0.0100118   0.0110651   214.7598942   0.0099933   
04515   214.4319034   0.0100011   0.0110545   214.63747   0.0099825   107.161077   71.440718   0.0003441   214.6631007   0.0100119   0.0110673   215.1803123   0.0099934   
04516   214.82511   0.0100013   0.0110568   215.0322418   0.0099827   107.3581979   71.5721319   0.0003447   215.1127356   0.0100119   0.0110695   215.629643   0.0099934   
04517   215.2561328   0.0100014   0.011059   215.4645474   0.0099828   107.5740754   71.7160502   0.0003454   215.5501546   0.0100119   0.0110717   216.0688772   0.0099934   
04518   215.6816039   0.0100015   0.0110612   215.8911725   0.0099829   107.7871585   71.8581056   0.0003461   215.9892668   0.0100119   0.0110739   216.5099762   0.0099934   
04519   216.1110791   0.0100015   0.0110634   216.3217157   0.0099829   108.002168   72.0014454   0.0003467   216.4263979   0.0100119   0.0110761   216.9487792   0.0099934   
04520   216.5304115   0.0100016   0.0110655   216.7416209   0.009983   108.2117028   72.1411352   0.0003474   216.8584213   0.0100119   0.0110783   217.3790906   0.0099934   
04521   216.7300203   0.0100028   0.0110678   216.9429827   0.0099842   108.313594   72.2090627   0.0003477   217.02622   0.0100133   0.0110806   217.5559607   0.0099949   
04522   217.1606751   0.0100029   0.01107   217.3748625   0.0099843   108.5291611   72.3527741   0.0003484   217.4638838   0.0100133   0.0110828   217.9951842   0.0099949   
04523   217.5092931   0.0100034   0.0110723   217.72474   0.0099848   108.703659   72.469106   0.0003489   217.8319442   0.0100137   0.0110851   218.381558   0.0099952   
04524   217.8178158   0.010004   0.0110745   218.0398833   0.0099854   108.8614528   72.5743018   0.0003494   218.2637592   0.0100137   0.0110872   218.8113016   0.0099952   
04525   208.725317   0.0100664   0.0110912   208.9204545   0.0100477   104.3065692   69.5377128   0.0003352   209.4228799   0.010075   0.0111041   209.8945235   0.0100565   
04526   209.1604022   0.0100664   0.0110934   209.3567206   0.0100477   104.5244637   69.6829758   0.0003359   209.8587598   0.010075   0.0111063   210.3329174   0.0100565   
04527   209.5925755   0.0100664   0.0110956   209.7901825   0.0100478   104.7409947   69.8273298   0.0003365   210.2957885   0.010075   0.0111085   210.771782   0.0100565   
04528   210.0298169   0.0100664   0.0110978   210.2285669   0.0100478   104.9599188   69.9732792   0.0003372   210.7313492   0.010075   0.0111107   211.2090864   0.0100565   
04529   210.4649487   0.0100664   0.0111   210.6649348   0.0100478   105.1778049   70.1185366   0.0003379   211.1675339   0.010075   0.0111128   211.6469789   0.0100565   
04530   210.8978878   0.0100664   0.0111022   211.0991375   0.0100478   105.3945926   70.2630617   0.0003386   211.6046462   0.010075   0.011115   212.0851548   0.0100565   
04531   211.3340582   0.0100665   0.0111044   211.5364772   0.0100478   105.6129962   70.4086641   0.0003393   212.0409626   0.010075   0.0111172   212.5221263   0.0100565   
04532   211.7686529   0.0100665   0.0111066   211.9722953   0.0100478   105.830636   70.5537573   0.00034   212.4774275   0.010075   0.0111194   212.9599753   0.0100565   
04533   212.2059011   0.0100665   0.0111088   212.4106797   0.0100478   106.0495601   70.6997067   0.0003406   212.9129941   0.010075   0.0111216   213.3972796   0.0100565   
04534   212.6431506   0.0100665   0.011111   212.849064   0.0100478   106.2684842   70.8456561   0.0003413   213.3485614   0.010075   0.0111238   213.8345835   0.0100565   
04535   213.0757545   0.0100665   0.0111132   213.2829382   0.0100479   106.4851815   70.990121   0.000342   213.7855088   0.010075   0.011126   214.2732826   0.0100565   
04536   213.5119939   0.0100665   0.0111154   213.7203428   0.0100479   106.7036287   71.1357525   0.0003427   214.221363   0.010075   0.0111281   214.7109063   0.0100565   
04537   213.9446719   0.0100665   0.0111176   214.1543197   0.0100479   106.9203114   71.2802076   0.0003434   214.6577745   0.010075   0.0111303   215.1501986   0.0100565   
04538   214.3806729   0.0100665   0.0111197   214.5914755   0.0100479   107.1386205   71.425747   0.000344   215.0937237   0.010075   0.0111325   215.5878762   0.0100565   
04539   214.8034249   0.0100666   0.011122   215.0156895   0.010048   107.3504929   71.5669952   0.0003447   215.3587224   0.0100759   0.0111347   215.8642409   0.0100574   
04540   215.2397755   0.0100666   0.0111241   215.4532062   0.010048   107.5689746   71.7126497   0.0003454   215.7945509   0.0100759   0.0111369   216.3018329   0.0100574   
04541   215.6406364   0.0100669   0.0111264   215.855923   0.0100482   107.7700524   71.8467016   0.000346   216.2090179   0.0100761   0.0111391   216.7123557   0.0100575   
04542   216.0750102   0.0100669   0.0111286   216.291498   0.0100483   107.9875668   71.9917112   0.0003467   216.6454649   0.0100761   0.0111413   217.1505049   0.0100575   
04543   216.4602515   0.0100672   0.0111308   216.678772   0.0100486   108.1807252   72.1204835   0.0003473   217.0977464   0.0100761   0.0111436   217.6009837   0.0100575   
04544   216.890835   0.0100673   0.011133   217.1106067   0.0100486   108.3963645   72.264243   0.000348   217.496428   0.0100763   0.0111458   217.9990845   0.0100577   
04545   217.308916   0.0100673   0.0111352   217.5283492   0.0100487   108.6049506   72.4033004   0.0003486   217.9291033   0.0100763   0.0111479   218.4324618   0.0100577   
04546   217.686537   0.0100677   0.0111375   217.9074635   0.0100491   108.7943461   72.529564   0.0003492   218.3819771   0.0100763   0.0111502   218.8818817   0.0100577   
04547   217.8697583   0.0100688   0.0111395   218.1007764   0.0100501   108.8907915   72.593861   0.0003495   218.6850207   0.0100765   0.011152   219.1844001   0.010058   
04548   208.5421212   0.0101326   0.0111565   208.744845   0.0101139   104.217577   69.4783847   0.0003349   209.4709561   0.0101399   0.0111692   209.9530015   0.0101213   
04549   208.9783068   0.0101326   0.0111587   209.1822313   0.0101139   104.4360044   69.6240029   0.0003356   209.9068202   0.0101399   0.0111714   210.3906149   0.0101213   
04550   209.4098745   0.0101326   0.0111609   209.6151283   0.010114   104.6521596   69.7681064   0.0003363   210.3438908   0.0101399   0.0111736   210.8298094   0.0101213   
04551   209.7936803   0.010133   0.0111632   210.0016726   0.0101143   104.8450228   69.8966819   0.0003369   210.3639164   0.010142   0.0111758   210.8839874   0.0101234   
04552   210.2309239   0.010133   0.0111654   210.4400569   0.0101143   105.0639469   70.0426312   0.0003376   210.79949   0.010142   0.011178   211.3212915   0.0101234   
04553   210.6648541   0.010133   0.0111676   210.8752117   0.0101143   105.2812537   70.1875025   0.0003382   211.2366992   0.010142   0.0111802   211.7578052   0.0101234   
04554   211.1021003   0.010133   0.0111698   211.313596   0.0101143   105.5001776   70.3334517   0.0003389   211.6722761   0.010142   0.0111824   212.1951091   0.0101234   
04555   211.5339123   0.010133   0.011172   211.7466976   0.0101144   105.7164967   70.4776645   0.0003396   212.1099829   0.010142   0.0111846   212.6329614   0.0101234   
04556   211.9590907   0.0101331   0.0111742   212.1734316   0.0101144   105.9295409   70.6196939   0.0003403   212.5489431   0.010142   0.0111868   213.0739821   0.0101234   
04557   212.3876621   0.0101332   0.0111764   212.6033785   0.0101145   106.1442344   70.7628229   0.0003409   212.9884399   0.010142   0.011189   213.5115288   0.0101234   
04558   212.8249148   0.0101332   0.0111786   213.0417628   0.0101145   106.3631579   70.9087719   0.0003416   213.4240222   0.010142   0.0111911   213.9488329   0.0101234   
04559   213.2580234   0.0101332   0.0111807   213.4761163   0.0101145   106.5800753   71.0533835   0.0003423   213.8604944   0.010142   0.0111933   214.387768   0.0101234   
04560   213.6201723   0.0101337   0.011183   213.8410408   0.010115   106.7622933   71.1748622   0.0003429   214.3185861   0.010142   0.0111956   214.8460078   0.0101234   
04561   214.0488253   0.0101337   0.0111852   214.2710607   0.010115   106.9771058   71.3180705   0.0003435   214.7567466   0.010142   0.0111978   215.2858421   0.0101234   
04562   214.486087   0.0101337   0.0111874   214.709445   0.010115   107.1960299   71.4640199   0.0003442   215.1923359   0.010142   0.0112   215.7231459   0.0101234   
04563   214.9219093   0.0101337   0.0111896   215.1464204   0.010115   107.4142505   71.6095004   0.0003449   215.6283461   0.010142   0.0112022   216.1609039   0.0101234   
04564   215.3591734   0.0101337   0.0111918   215.5848047   0.010115   107.6331745   71.7554496   0.0003456   216.0639373   0.010142   0.0112044   216.5982078   0.0101234   
04565   215.7755728   0.0101338   0.011194   216.0014165   0.0101152   107.8412741   71.8941828   0.0003463   216.5041415   0.010142   0.0112066   217.0358798   0.0101234   
04566   216.1957725   0.0101339   0.0111962   216.422832   0.0101153   108.0517581   72.0345054   0.0003469   216.9432167   0.010142   0.0112088   217.4765984   0.0101234   
04567   216.6315193   0.010134   0.0111984   216.859696   0.0101153   108.2699298   72.1799532   0.0003476   217.3792598   0.010142   0.0112109   217.9143896   0.0101234   
04568   217.0680687   0.010134   0.0112006   217.2973854   0.0101153   108.4885036   72.3256691   0.0003483   217.8150462   0.010142   0.0112131   218.3519334   0.0101234   
04569   217.3195964   0.0101351   0.011203   217.5583305   0.0101164   108.6189571   72.4126381   0.0003487   218.2485126   0.010142   0.0112153   218.7888774   0.0101234   
04570   217.7284797   0.0101352   0.0112051   217.9663707   0.0101165   108.8231286   72.5487524   0.0003493   218.6839056   0.010142   0.0112175   219.2248623   0.0101234   
04571   209.1528593   0.0101942   0.0112211   209.3513425   0.0101755   104.5204631   69.6803088   0.0003359   210.1589536   0.0102011   0.0112336   210.6043125   0.0101825   
04572   209.5900766   0.0101942   0.0112233   209.7897269   0.0101755   104.7393873   69.8262582   0.0003365   210.5944842   0.0102011   0.0112358   211.0416162   0.0101825   
04573   209.9930351   0.0101944   0.0112255   210.1945879   0.0101757   104.9415994   69.9610663   0.0003372   211.0398251   0.0102011   0.011238   211.4892364   0.0101825   
04574   210.4227292   0.0101945   0.0112277   210.625677   0.0101757   105.1568661   70.1045774   0.0003379   211.4775735   0.0102011   0.0112402   211.9287749   0.0101825   
04575   210.8588512   0.0101945   0.0112299   211.0630409   0.0101758   105.3752762   70.2501841   0.0003385   211.9132995   0.0102011   0.0112424   212.3663535   0.0101825   
04576   211.2960761   0.0101945   0.0112321   211.5014252   0.0101758   105.5942001   70.3961334   0.0003392   212.3488368   0.0102011   0.0112446   212.8036577   0.0101825   
04577   211.6971464   0.0101947   0.0112344   211.9051193   0.010176   105.7957853   70.5305236   0.0003399   212.7947278   0.0102011   0.0112468   213.2517566   0.0101825   
04578   212.134377   0.0101947   0.0112365   212.3435036   0.010176   106.0147095   70.676473   0.0003405   213.2302678   0.0102011   0.011249   213.6890607   0.0101825   
04579   212.5716089   0.0101947   0.0112387   212.7818879   0.010176   106.2336335   70.8224224   0.0003412   213.6658092   0.0102011   0.0112512   214.126365   0.0101825   
04580   213.0044452   0.0101948   0.0112409   213.2161329   0.010176   106.4504534   70.9669689   0.0003419   214.1023953   0.0102011   0.0112534   214.5648675   0.0101825   
04581   213.44168   0.0101948   0.0112431   213.6545173   0.010176   106.6693776   71.1129184   0.0003426   214.5379394   0.0102011   0.0112556   215.0021716   0.0101825   
04582   213.8772371   0.0101948   0.0112453   214.0913317   0.010176   106.8875034   71.2583356   0.0003433   214.9738745   0.0102011   0.0112577   215.4399411   0.0101825   
04583   214.2960348   0.0101949   0.0112475   214.5117245   0.0101761   107.0974357   71.3982905   0.0003439   215.346704   0.0102014   0.0112599   215.835557   0.0101827   
04584   214.7327988   0.0101949   0.0112497   214.9496621   0.0101761   107.3161313   71.5440875   0.0003446   215.7823522   0.0102014   0.0112621   216.2729865   0.0101827   
04585   215.1544167   0.010195   0.0112519   215.3727206   0.0101762   107.5274083   71.6849389   0.0003453   216.1704832   0.0102016   0.0112643   216.6598807   0.010183   
04586   215.5250213   0.0101954   0.0112542   215.7451998   0.0101767   107.7133697   71.8089131   0.0003459   216.6154199   0.0102017   0.0112666   217.1039251   0.0101831   
04587   215.9298525   0.0101956   0.0112565   216.1520557   0.0101769   107.9165241   71.9443494   0.0003465   217.0598556   0.0102017   0.0112688   217.5508962   0.0101831   
04588   216.3328311   0.0101958   0.0112587   216.5566813   0.0101771   108.1186314   72.0790876   0.0003471   217.2713255   0.0102028   0.0112711   217.773756   0.0101842   
04589   216.7504574   0.010196   0.0112609   216.9758864   0.0101772   108.3279815   72.2186543   0.0003478   217.7120909   0.0102028   0.0112733   218.2152553   0.0101842   
04590   217.1815639   0.010196   0.0112631   217.4081279   0.0101773   108.5438223   72.3625482   0.0003485   218.1493819   0.0102028   0.0112755   218.6544546   0.0101842   
04591   217.5982425   0.0101961   0.0112653   217.8262275   0.0101774   108.7524088   72.5016059   0.0003491   218.5898439   0.0102028   0.0112777   219.0970457   0.0101842   
04592   217.9639218   0.0101966   0.0112676   218.1944907   0.0101778   108.9362827   72.6241884   0.0003497   219.0025202   0.010203   0.0112799   219.5183392   0.0101844   
04593   218.3314469   0.010197   0.0112699   218.5635663   0.0101782   109.1208554   72.7472369   0.0003503   219.4518856   0.010203   0.0112822   219.9676035   0.0101844   
04594   218.5979577   0.010198   0.0112722   218.8328861   0.0101792   109.2557101   72.8371401   0.0003507   219.8646351   0.0102033   0.0112845   220.3829123   0.0101846   
04595   218.9686113   0.0101984   0.0112745   219.2053564   0.0101796   109.4474259   72.9649506   0.0003513   220.2373723   0.0102037   0.0112868   220.754601   0.010185   
04596   219.184649   0.010199   0.0112761   219.4246681   0.0101802   110.0185783   73.3457188   0.000359   220.5438607   0.0102038   0.0112884   221.0524902   0.0101852   
04597   219.4769861   0.0101996   0.0112782   219.7172623   0.0101808   110.1664817   73.4443212   0.0003594   220.5659662   0.0102058   0.0112906   221.1019869   0.0101871   
04598   210.7450984   0.0102516   0.0112863   210.9242101   0.0102327   105.7750383   70.5166922   0.0003457   211.9501594   0.0102573   0.0112988   212.4646544   0.0102386   
04599   211.1823197   0.0102516   0.0112885   211.3625944   0.0102327   105.993962   70.6626413   0.0003464   212.3857056   0.0102573   0.011301   212.9019582   0.0102386   
04600   211.6186196   0.0102516   0.0112907   211.8000855   0.0102327   106.2124368   70.8082912   0.0003471   212.8215207   0.0102573   0.0113032   213.3395658   0.0102386   
04601   212.0434047   0.0102516   0.0112929   212.226508   0.0102328   106.425389   70.9502593   0.0003477   213.2515417   0.0102573   0.0113054   213.7700587   0.0102386   
04602   212.4787713   0.0102517   0.0112951   212.663098   0.0102328   106.6434169   71.0956113   0.0003484   213.6874809   0.0102573   0.0113076   214.2077033   0.0102386   
04603   212.9126866   0.0102517   0.0112973   213.0982946   0.0102329   106.8607495   71.2404997   0.0003491   214.1239077   0.0102573   0.0113098   214.6460691   0.0102386   
04604   213.3459417   0.0102517   0.0112995   213.5328271   0.0102329   107.0777396   71.3851597   0.0003498   214.4947365   0.0102577   0.011312   215.0237663   0.010239   
04605   213.7814469   0.0102517   0.0113017   213.9697145   0.0102329   107.2959099   71.5306066   0.0003505   214.9308555   0.0102577   0.0113142   215.4612493   0.010239   
04606   214.214026   0.0102517   0.0113039   214.4035454   0.0102329   107.5125703   71.6750469   0.0003511   215.3678114   0.0102577   0.0113163   215.9000089   0.010239   
04607   214.6235196   0.0102519   0.0113061   214.8149987   0.0102331   107.7180247   71.8120165   0.0003518   215.6232201   0.0102585   0.0113186   216.1784798   0.0102398   
04608   215.0352224   0.0102521   0.0113083   215.2285326   0.0102332   107.92452   71.94968   0.0003524   216.037076   0.0102587   0.0113208   216.5804975   0.01024   
04609   215.4605372   0.0102521   0.0113105   215.6552786   0.0102333   108.1376451   72.0917634   0.0003531   216.4763242   0.0102587   0.011323   217.0213498   0.01024   
04610   215.8964338   0.0102521   0.0113127   216.0923654   0.0102333   108.3559325   72.2372883   0.0003538   216.9103151   0.0102587   0.0113251   217.4571397   0.01024   
04611   216.3321648   0.0102522   0.0113149   216.5292706   0.0102333   108.5741195   72.3827464   0.0003545   217.3463631   0.0102587   0.0113273   217.8948793   0.01024   
04612   216.7489396   0.0102523   0.0113171   216.9475369   0.0102335   108.7829952   72.5219968   0.0003551   217.7878275   0.0102587   0.0113295   218.3384506   0.01024   
04613   216.9593921   0.0102537   0.0113196   217.1627283   0.0102348   108.8904729   72.5936486   0.0003554   218.0460682   0.0102599   0.011332   218.5796373   0.0102412   
04614   217.3913915   0.0102537   0.0113217   217.5959319   0.0102349   109.1068188   72.7378792   0.0003561   218.47984   0.0102599   0.0113341   219.0150752   0.0102412   
04615   217.8209409   0.0102537   0.0113239   218.0267562   0.0102349   109.3219719   72.8813146   0.0003568   218.9161579   0.0102599   0.0113363   219.4534366   0.0102412   
04616   218.2332019   0.0102539   0.0113262   218.4404461   0.0102351   109.5285371   73.0190248   0.0003574   219.3453135   0.0102599   0.0113385   219.877333   0.0102412   
04617   217.3979686   0.0102539   0.011322   217.5936692   0.0102351   109.1035996   72.7357331   0.0003561   218.4982107   0.0102599   0.0113342   218.9927487   0.0102412   
04618   217.8219923   0.0102539   0.0113241   218.0186229   0.0102351   109.3157583   72.8771722   0.0003568   218.9232247   0.0102599   0.0113363   219.4174535   0.0102412   
04619   218.2122985   0.0102539   0.0113261   218.4101948   0.0102351   109.5111911   73.0074607   0.0003574   219.2681144   0.0102599   0.0113381   219.7710748   0.0102412   
04620   211.9331508   0.0102763   0.0113169   212.1243838   0.0102574   106.3731064   70.9154043   0.0003476   213.0075686   0.0102785   0.0113251   213.4681297   0.0102597   
04621   212.3701737   0.0102763   0.0113191   212.5623652   0.0102574   106.5918196   71.061213   0.0003483   213.4429703   0.0102785   0.0113273   213.9052607   0.0102597   
04622   212.8073984   0.0102763   0.0113213   213.0007495   0.0102574   106.8107437   71.2071625   0.0003489   213.8785191   0.0102785   0.0113295   214.3425648   0.0102597   
04623   213.2436657   0.0102763   0.0113235   213.4381778   0.0102574   107.0291872   71.3527915   0.0003496   214.3143674   0.0102785   0.0113317   214.7801431   0.0102597   
04624   213.679285   0.0102763   0.0113256   213.8753714   0.0102574   107.2475153   71.4983435   0.0003503   214.7495846   0.0102785   0.0113339   215.2171364   0.0102597   
04625   214.1131065   0.0102763   0.0113278   214.3095698   0.0102574   107.4643866   71.6429244   0.000351   215.182521   0.0102785   0.011336   215.6519636   0.0102597   
04626   214.5503364   0.0102763   0.01133   214.7479541   0.0102574   107.6833106   71.7888737   0.0003517   215.6180741   0.0102785   0.0113382   216.0892677   0.0102597   
04627   214.9864593   0.0102763   0.0113322   215.1851538   0.0102574   107.9016183   71.9344122   0.0003524   216.0531624   0.0102785   0.0113404   216.526165   0.0102597   
04628   215.4229443   0.0102763   0.0113344   215.6230551   0.0102574   108.1203114   72.0802076   0.000353   216.4885483   0.0102785   0.0113426   216.963293   0.0102597   
04629   215.8590668   0.0102763   0.0113366   216.060346   0.0102574   108.3386794   72.2257863   0.0003537   216.9243545   0.0102785   0.0113448   217.4008935   0.0102597   
04630   216.2721671   0.0102764   0.0113388   216.4764199   0.0102575   108.5465817   72.3643878   0.0003544   217.1431949   0.0102796   0.011347   217.6448735   0.0102608   
04631   216.7049903   0.0102764   0.0113409   216.9096631   0.0102575   108.7629187   72.5086125   0.000355   217.5787027   0.0102796   0.0113491   218.0831257   0.0102608   
04632   217.1265799   0.0102765   0.0113431   217.332646   0.0102576   108.9740364   72.6493576   0.0003557   218.0148382   0.0102796   0.0113513   218.5214808   0.0102608   
04633   217.5399088   0.0102766   0.0113453   217.747688   0.0102577   109.1814653   72.7876435   0.0003564   218.421604   0.0102797   0.0113535   218.9234617   0.0102609   
04634   217.9705891   0.0102766   0.0113475   218.1796929   0.0102577   109.3971925   72.9314617   0.000357   218.8514782   0.0102797   0.0113557   219.3551011   0.0102609   
04635   218.4021242   0.0102767   0.0113497   218.6126219   0.0102578   109.6133379   73.0755586   0.0003577   219.2418667   0.01028   0.0113579   219.7456724   0.0102612   
04636   218.8302687   0.0102767   0.0113518   219.0412801   0.0102578   109.8274153   73.2182768   0.0003584   219.6762308   0.01028   0.0113601   220.1809709   0.0102612   
04637   219.2271555   0.0102769   0.0113541   219.4400522   0.010258   110.0266247   73.3510831   0.000359   220.1054367   0.01028   0.0113623   220.6091656   0.0102612   
04638   219.5685575   0.0102774   0.0113563   219.7826116   0.0102585   110.1979349   73.46529   0.0003595   220.526222   0.0102802   0.0113645   221.0220298   0.0102614   
04639   212.5943055   0.0103259   0.0113698   212.7838269   0.010307   106.7024128   71.1349419   0.0003486   213.2842128   0.0103302   0.0113781   213.7256865   0.0103114   
04640   213.0150237   0.010326   0.011372   213.2060049   0.0103071   106.9132449   71.2754966   0.0003493   213.7247654   0.0103302   0.0113803   214.1680329   0.0103114   
04641   213.4522427   0.010326   0.0113742   213.6443893   0.0103071   107.132169   71.421446   0.0003499   214.1603134   0.0103302   0.0113825   214.605337   0.0103114   
04642   213.889463   0.010326   0.0113764   214.0827736   0.0103071   107.3510931   71.5673954   0.0003506   214.5958625   0.0103302   0.0113847   215.0426411   0.0103114   
04643   214.3266847   0.010326   0.0113786   214.521158   0.0103071   107.5700169   71.7133446   0.0003513   215.0314125   0.0103302   0.0113869   215.4799454   0.0103114   
04644   214.7365759   0.0103262   0.0113808   214.9330155   0.0103073   107.7756922   71.8504615   0.000352   215.479352   0.0103302   0.0113891   215.9013183   0.0103114   
04645   215.1725112   0.0103262   0.011383   215.370127   0.0103073   107.9939796   71.9959864   0.0003526   215.9155398   0.0103302   0.0113913   216.3386348   0.0103114   
04646   215.6070107   0.0103262   0.0113852   215.8058488   0.0103073   108.2115849   72.1410566   0.0003533   216.3519201   0.0103302   0.0113935   216.7767464   0.0103114   
04647   216.0330101   0.0103263   0.0113874   216.2333472   0.0103074   108.4250786   72.2833858   0.000354   216.7907385   0.0103302   0.0113957   217.2175834   0.0103114   
04648   216.470241   0.0103263   0.0113896   216.6717315   0.0103074   108.6440024   72.4293349   0.0003547   217.2263005   0.0103302   0.0113979   217.6548871   0.0103114   
04649   216.9074731   0.0103263   0.0113918   217.1101158   0.0103074   108.8629265   72.5752843   0.0003554   217.6618627   0.0103302   0.0114   218.0921911   0.0103114   
04650   217.3335899   0.0103264   0.011394   217.5377138   0.0103074   109.0764619   72.7176412   0.000356   218.1008046   0.0103302   0.0114022   218.532612   0.0103114   
04651   217.7685692   0.0103264   0.0113962   217.9738851   0.0103074   109.2942787   72.8628524   0.0003567   218.536793   0.0103302   0.0114044   218.9709845   0.0103114   
04652   218.2036916   0.0103264   0.0113984   218.4101914   0.0103075   109.5121643   73.0081095   0.0003574   218.9731152   0.0103302   0.0114066   219.4086892   0.0103114   
04653   218.6298086   0.0103265   0.0114006   218.8377157   0.0103075   109.7256554   73.1504369   0.0003581   219.4125562   0.0103302   0.0114088   219.8484969   0.0103114   
04654   219.0400709   0.0103266   0.0114028   219.2491133   0.0103077   109.9310308   73.2873539   0.0003587   219.7407834   0.0103308   0.011411   220.1785941   0.0103119   
04655   219.2024163   0.0103284   0.0114053   219.4178293   0.0103094   110.0152273   73.3434848   0.000359   220.101807   0.0103314   0.0114135   220.5588841   0.0103126   
04656   219.6122992   0.0103284   0.0114074   219.8265681   0.0103094   110.2193095   73.4795396   0.0003596   220.5215011   0.0103314   0.0114156   220.9768644   0.0103126   
04657   212.1999976   0.0103346   0.0113764   212.355472   0.0103156   106.4896044   70.9930696   0.000348   213.0883021   0.0103314   0.0113783   213.4907282   0.0103126   
04658   212.6104778   0.0103347   0.0113786   212.7687533   0.0103157   106.6955879   71.1303919   0.0003487   213.5110623   0.0103314   0.0113805   213.9175852   0.0103126   
04659   213.0469301   0.0103347   0.0113808   213.2062481   0.0103157   106.9140756   71.2760504   0.0003493   213.9461429   0.0103314   0.0113826   214.3542458   0.0103126   
04660   213.4841606   0.0103347   0.0113829   213.6446324   0.0103157   107.1329993   71.4219995   0.00035   214.3816979   0.0103314   0.0113848   214.7915498   0.0103126   
04661   213.9193448   0.0103347   0.0113851   214.0809837   0.0103157   107.3509265   71.5672843   0.0003507   214.8151417   0.0103314   0.011387   215.2267654   0.0103126   
04662   214.2816667   0.0103347   0.011387   214.4470237   0.0103158   107.5326376   71.6884251   0.0003513   215.1701231   0.0103314   0.0113888   215.588205   0.0103126   
04663   214.7161704   0.0103347   0.0113892   214.8828705   0.0103158   107.7503888   71.8335926   0.000352   215.6051102   0.0103314   0.0113909   216.0251466   0.0103126   
04664   215.137434   0.0103348   0.0113914   215.306806   0.0103159   107.9618048   71.9745365   0.0003526   216.0369778   0.0103314   0.0113931   216.4610903   0.0103126   
04665   215.558877   0.0103348   0.0113935   215.7300221   0.0103159   108.1731611   72.1154407   0.0003533   216.4539842   0.0103314   0.0113952   216.8811005   0.0103126   
04666   215.9905122   0.0103349   0.0113957   216.1632015   0.0103159   108.3894866   72.2596577   0.000354   216.8879308   0.0103314   0.0113974   217.3173448   0.0103126   
04667   216.4183329   0.0103349   0.0113979   216.5919242   0.0103159   108.6036738   72.4024492   0.0003547   217.3174588   0.0103314   0.0113995   217.7484731   0.0103126   
04668   216.8440301   0.010335   0.0114001   217.0199375   0.010316   108.8174406   72.5449604   0.0003553   217.7507052   0.0103314   0.0114017   218.1848425   0.0103126   
04669   217.2788316   0.010335   0.0114023   217.456252   0.010316   109.0353329   72.6902219   0.000356   218.1855266   0.0103314   0.0114039   218.6214066   0.0103126   
04670   217.711735   0.010335   0.0114044   217.8901927   0.010316   109.2520891   72.834726   0.0003567   218.6206862   0.0103314   0.0114061   219.0581144   0.0103126   
04671   218.1437526   0.010335   0.0114066   218.3235008   0.010316   109.4685868   72.9790579   0.0003574   219.05016   0.0103314   0.0114082   219.4896493   0.0103126   
04672   218.5328526   0.0103351   0.0114087   218.7150223   0.0103161   109.6638173   73.1092116   0.000358   219.4456962   0.0103314   0.0114102   219.8888333   0.0103126   
04673   218.9541111   0.0103352   0.0114109   219.1380282   0.0103162   109.8748737   73.2499158   0.0003586   219.8815332   0.0103314   0.0114124   220.3260913   0.0103126   
04674   219.2975402   0.0103356   0.0114129   219.4811358   0.0103166   110.0458847   73.3639231   0.0003592   220.3027703   0.0103314   0.0114145   220.7446938   0.0103126   
04675   219.6318511   0.0103362   0.0114152   219.8178411   0.0103172   110.2139352   73.4759568   0.0003597   220.6095895   0.0103322   0.0114167   221.0485051   0.0103133   
04676   220.0485296   0.0103363   0.0114174   220.2364945   0.0103173   110.4229316   73.6152877   0.0003604   221.0430146   0.0103322   0.0114189   221.483892   0.0103133   
04677   209.5647231   0.0104077   0.0114363   209.7153253   0.0103887   105.1690869   70.1127246   0.0003439   210.1800162   0.0104058   0.011438   210.5086868   0.0103869   
04678   210.0019292   0.0104077   0.0114385   210.1537096   0.0103887   105.3880111   70.2586741   0.0003446   210.6155419   0.0104058   0.0114401   210.9459911   0.0103869   
04679   210.4391367   0.0104077   0.0114407   210.5920939   0.0103887   105.6069352   70.4046235   0.0003453   211.051069   0.0104058   0.0114423   211.383295   0.0103869   
04680   210.8653816   0.0104078   0.0114429   211.0198426   0.0103888   105.8203743   70.5469162   0.000346   211.489475   0.0104058   0.0114445   211.8244821   0.0103869   
04681   211.3014751   0.0104078   0.0114451   211.4571542   0.0103888   106.0387689   70.6925126   0.0003466   211.9253138   0.0104058   0.0114467   212.2621075   0.0103869   
04682   211.7192095   0.0104079   0.0114473   211.8766231   0.0103889   106.2482255   70.8321504   0.0003473   212.3217209   0.010406   0.0114489   212.6698566   0.0103871   
04683   212.1564244   0.0104079   0.0114495   212.3150075   0.0103889   106.4671495   70.9780997   0.000348   212.7572529   0.010406   0.0114511   213.1071605   0.0103871   
04684   212.5804266   0.010408   0.0114517   212.7404802   0.010389   106.6795935   71.119729   0.0003486   213.1680732   0.0104062   0.0114533   213.5122591   0.0103873   
04685   213.0143751   0.010408   0.0114539   213.1756771   0.010389   106.8969289   71.2646193   0.0003493   213.6047986   0.0104062   0.0114555   213.9503551   0.0103873   
04686   213.4515949   0.010408   0.0114561   213.6140615   0.010389   107.1158529   71.4105686   0.00035   214.0403389   0.0104062   0.0114577   214.3876594   0.0103873   
04687   213.8747843   0.0104081   0.0114583   214.0386276   0.0103891   107.3277906   71.5518604   0.0003507   214.3611131   0.0104068   0.0114599   214.7120299   0.0103879   
04688   214.3096448   0.0104081   0.0114605   214.4746949   0.0103891   107.5456206   71.6970804   0.0003514   214.7854513   0.0104068   0.0114621   215.1363913   0.0103879   
04689   214.7459042   0.0104081   0.0114627   214.9121302   0.0103891   107.7640669   71.8427113   0.000352   215.2210542   0.0104068   0.0114642   215.5742434   0.0103879   
04690   215.1791947   0.0104082   0.0114649   215.3466498   0.0103891   107.9810357   71.9873571   0.0003527   215.6583772   0.0104068   0.0114664   216.0117154   0.0103879   
04691   215.6130644   0.0104082   0.0114671   215.7817579   0.0103892   108.1983928   72.1322619   0.0003534   216.094682   0.0104068   0.0114686   216.4503772   0.0103879   
04692   216.050293   0.0104082   0.0114692   216.2201423   0.0103892   108.417317   72.2782113   0.0003541   216.5302333   0.0104068   0.0114708   216.8876811   0.0103879   
04693   216.4875229   0.0104082   0.0114714   216.6585266   0.0103892   108.6362412   72.4241608   0.0003548   216.9657854   0.0104068   0.011473   217.3249852   0.0103879   
04694   216.9131696   0.0104083   0.0114736   217.0854558   0.0103892   108.8494831   72.5663221   0.0003554   217.4048426   0.0104068   0.0114752   217.7658193   0.0103879   
04695   217.3504023   0.0104083   0.0114758   217.5238401   0.0103892   109.0684072   72.7122715   0.0003561   217.8403971   0.0104068   0.0114774   218.2031236   0.0103879   
04696   217.787021   0.0104083   0.011478   217.9616179   0.0103892   109.2870098   72.8580066   0.0003568   218.2761305   0.0104068   0.0114795   218.6406275   0.0103879   
04697   218.2239921   0.0104083   0.0114802   218.3997434   0.0103892   109.505804   73.0038693   0.0003575   218.7117306   0.0104068   0.0114817   219.0780582   0.0103879   
04698   218.652411   0.0104083   0.0114824   218.8294237   0.0103893   109.7204022   73.1469348   0.0003582   219.1499929   0.0104068   0.0114839   219.5178948   0.0103879   
04699   219.0793529   0.0104084   0.0114846   219.2577356   0.0103894   109.9343226   73.2895484   0.0003588   219.5887536   0.0104068   0.0114861   219.958107   0.0103879   
04700   219.5072773   0.0104084   0.0114868   219.6869373   0.0103894   110.1484498   73.4322998   0.0003595   220.0258515   0.0104068   0.0114883   220.3971121   0.0103879   
04701   219.8678188   0.0104089   0.0114891   220.0493116   0.0103899   110.3291242   73.5527495   0.0003601   220.4784889   0.0104068   0.0114906   220.8516992   0.0103879   
04702   220.2706335   0.010409   0.0114912   220.452015   0.01039   110.5304933   73.6869956   0.0003607   220.8812124   0.0104068   0.0114926   221.2500361   0.0103879   
04703   220.4832975   0.0104101   0.0114934   220.6677179   0.0103911   110.6379922   73.7586615   0.000361   221.0148866   0.0104084   0.0114948   221.3758246   0.0103895   
04704   220.885627   0.0104103   0.0114955   221.0715459   0.0103912   110.8394489   73.8929659   0.0003617   221.3653527   0.0104088   0.011497   221.7349617   0.0103899   
04705   220.9401939   0.0104125   0.011498   221.1272203   0.0103935   110.7751057   73.8500705   0.0003664   221.8237189   0.0104092   0.0114996   222.1696575   0.0103903   
04706   221.3620288   0.0104126   0.0115002   221.5507002   0.0103935   110.9864544   73.9909696   0.000367   222.2614038   0.0104092   0.0115018   222.608846   0.0103903   
04707   210.5850615   0.0104856   0.0115193   210.7510651   0.0104665   105.5915255   70.3943504   0.0003501   211.1220715   0.0104842   0.0115211   211.4821657   0.0104653   
04708   211.0089611   0.0104857   0.0115215   211.1764956   0.0104666   105.8042213   70.5361475   0.0003508   211.5613183   0.0104842   0.0115233   211.9236634   0.0104653   
04709   211.4462019   0.0104857   0.0115237   211.6148799   0.0104666   106.0231453   70.6820968   0.0003515   211.9968748   0.0104842   0.0115255   212.3609678   0.0104653   
04710   211.8817192   0.0104857   0.0115259   212.0515741   0.0104666   106.2412599   70.8275066   0.0003522   212.4327806   0.0104842   0.0115277   212.7986826   0.0104653   
04711   212.3154078   0.0104857   0.0115281   212.4866362   0.0104667   106.458616   70.9724106   0.0003529   212.8684999   0.0104842   0.0115298   213.2364702   0.0104653   
04712   212.7508034   0.0104857   0.0115303   212.9231989   0.0104667   106.6765614   71.1177076   0.0003535   213.3047254   0.0104842   0.011532   213.6744502   0.0104653   
04713   213.1791098   0.0104858   0.0115325   213.3529135   0.0104667   106.8911668   71.2607778   0.0003542   213.7432453   0.0104842   0.0115342   214.1145906   0.0104653   
04714   213.6128306   0.0104858   0.0115347   213.7878492   0.0104668   107.1083681   71.4055788   0.0003549   214.1799783   0.0104842   0.0115364   214.5531261   0.0104653   
04715   214.0493252   0.0104858   0.0115369   214.2254967   0.0104668   107.3269506   71.5513004   0.0003556   214.6157444   0.0104842   0.0115386   214.9907507   0.0104653   
04716   214.486576   0.0104858   0.0115391   214.663881   0.0104668   107.5458745   71.6972497   0.0003563   215.0513093   0.0104842   0.0115408   215.4280548   0.0104653   
04717   214.9136469   0.0104859   0.0115413   215.0923303   0.0104668   107.7600047   71.8400031   0.0003569   215.4897582   0.0104842   0.011543   215.8685147   0.0104653   
04718   215.2765589   0.0104864   0.0115436   215.4563617   0.0104673   107.9417366   71.9611578   0.0003575   215.9145507   0.0104844   0.0115453   216.2920434   0.0104655   
04719   215.7130498   0.0104864   0.0115458   215.8940041   0.0104673   108.160279   72.1068527   0.0003582   216.3503431   0.0104844   0.0115475   216.7295946   0.0104655   
04720   216.1456294   0.0104864   0.011548   216.327931   0.0104673   108.3768458   72.2512305   0.0003589   216.7864181   0.0104844   0.0115497   217.1676848   0.0104655   
04721   216.5822563   0.0104864   0.0115502   216.7656865   0.0104673   108.5954248   72.3969499   0.0003595   217.2224735   0.0104844   0.0115519   217.6050582   0.0104655   
04722   217.0058497   0.0104865   0.0115524   217.1906776   0.0104674   108.8076904   72.5384603   0.0003602   217.6617389   0.0104844   0.0115541   218.046462   0.0104655   
04723   217.4431127   0.0104865   0.0115545   217.629062   0.0104674   109.0266146   72.6844097   0.0003609   218.0973146   0.0104844   0.0115562   218.4837662   0.0104655   
04724   217.8803769   0.0104865   0.0115567   218.0674463   0.0104674   109.2455386   72.830359   0.0003616   218.5328915   0.0104844   0.0115584   218.9210702   0.0104655   
04725   218.3176421   0.0104865   0.0115589   218.5058307   0.0104674   109.4644627   72.9763085   0.0003623   218.9684693   0.0104844   0.0115606   219.3583743   0.0104655   
04726   218.716912   0.0104867   0.0115612   218.9067738   0.0104677   109.664394   73.109596   0.0003629   219.3052077   0.0104849   0.0115628   219.7020272   0.010466   
04727   219.1541809   0.0104867   0.0115634   219.3451581   0.0104677   109.8833182   73.2555454   0.0003636   219.7407887   0.0104849   0.011565   220.1393314   0.010466   
04728   219.590113   0.0104867   0.0115656   219.7822316   0.0104677   110.1016081   73.401072   0.0003643   220.1767498   0.0104849   0.0115672   220.5770496   0.010466   
04729   220.0237794   0.0104868   0.0115677   220.2171737   0.0104677   110.3188181   73.5458787   0.0003649   220.5898718   0.010485   0.0115694   220.996805   0.0104661   
04730   220.4572664   0.0104868   0.0115699   220.6518408   0.0104677   110.5357965   73.690531   0.0003656   221.0262166   0.010485   0.0115716   221.4350695   0.0104661   
04731   220.8192968   0.0104873   0.0115722   221.0159482   0.0104682   110.7181239   73.8120826   0.0003662   221.4795293   0.010485   0.0115739   221.8912807   0.0104661   
04732   220.7815848   0.0104897   0.0115745   220.9800408   0.0104706   110.7018762   73.8012508   0.0003661   221.7883427   0.0104857   0.011576   222.2077733   0.0104667   
04733   221.2063573   0.0104897   0.0115766   221.4061367   0.0104707   110.9144306   73.9429537   0.0003668   222.222022   0.0104857   0.0115782   222.642994   0.0104667   
04734   221.5984593   0.01049   0.0115788   221.799586   0.0104709   111.1107793   74.0738529   0.0003674   222.6572111   0.0104857   0.0115804   223.081729   0.0104667   
04735   221.8487275   0.0104906   0.0115808   222.0478235   0.0104716   111.2351429   74.1567619   0.0003678   223.0581371   0.0104857   0.0115824   223.4720341   0.0104667   
04736   222.1553682   0.0104914   0.0115831   222.3566372   0.0104724   111.3895032   74.2596688   0.0003683   223.3074008   0.0104867   0.0115846   223.7161891   0.0104677   
04737   222.3647837   0.0104926   0.0115853   222.5677833   0.0104736   111.4935105   74.329007   0.0003686   223.1105447   0.0104899   0.0115869   223.532542   0.010471   
04738   222.7017854   0.010493   0.0115874   222.9025104   0.0104739   111.4927282   74.3284855   0.0003704   223.4531053   0.0104902   0.011589   223.8862833   0.0104713   
04739   213.7857467   0.0105521   0.0116017   213.9754508   0.0105329   106.9551708   71.3034472   0.0003564   214.3833127   0.0105521   0.0116052   214.7257008   0.0105331   
04740   214.2194838   0.0105521   0.0116039   214.4104167   0.0105329   107.172426   71.448284   0.0003571   214.8197811   0.0105521   0.0116073   215.1640404   0.0105331   
04741   214.6490345   0.0105521   0.0116061   214.8413963   0.010533   107.3876367   71.5917578   0.0003578   215.2563154   0.0105521   0.0116095   215.6055106   0.0105331   
04742   215.0829141   0.0105521   0.0116083   215.276526   0.010533   107.6049049   71.7366033   0.0003585   215.692361   0.0105521   0.0116117   216.0435384   0.0105331   
04743   215.5190209   0.0105522   0.0116105   215.7135666   0.010533   107.8231369   71.8820913   0.0003592   216.1291074   0.0105521   0.0116139   216.4825447   0.0105331   
04744   215.9450342   0.0105522   0.0116127   216.1411913   0.0105331   108.036626   72.0244174   0.0003598   216.5686883   0.0105521   0.0116161   216.9232772   0.0105331   
04745   216.3789994   0.0105522   0.0116149   216.5760543   0.0105331   108.2538325   72.1692217   0.0003605   217.0062296   0.0105521   0.0116183   217.3613501   0.0105331   
04746   216.8151226   0.0105522   0.0116171   217.0134762   0.0105331   108.4722857   72.3148571   0.0003612   217.4415764   0.0105521   0.0116205   217.7985233   0.0105331   
04747   217.2424388   0.0105523   0.0116193   217.4426117   0.0105332   108.6865941   72.4577294   0.0003619   217.7723992   0.0105526   0.0116227   218.1413868   0.0105336   
04748   217.6750854   0.0105523   0.0116215   217.8766571   0.0105332   108.9033428   72.6022285   0.0003625   218.2138576   0.0105526   0.0116249   218.5802631   0.0105336   
04749   218.1106136   0.0105523   0.0116237   218.3125217   0.0105332   109.1210054   72.7473369   0.0003632   218.6484354   0.0105526   0.0116271   219.0164393   0.0105336   
04750   218.5341771   0.0105524   0.0116259   218.7378984   0.0105333   109.3335437   72.8890292   0.0003639   219.0849901   0.0105526   0.0116293   219.4556696   0.0105336   
04751   218.9514062   0.0105526   0.0116281   219.1567687   0.0105334   109.5426971   73.0284648   0.0003645   219.4935561   0.0105528   0.0116315   219.8712908   0.0105338   
04752   219.376276   0.0105526   0.0116303   219.5835813   0.0105335   109.7559366   73.1706244   0.0003652   219.9319209   0.0105528   0.0116337   220.3118556   0.0105338   
04753   219.808656   0.0105527   0.0116325   220.0173208   0.0105335   109.9725002   73.3150001   0.0003659   220.3677359   0.0105528   0.0116359   220.7498116   0.0105338   
04754   220.2365949   0.0105527   0.0116347   220.446547   0.0105336   110.1868831   73.457922   0.0003666   220.8062582   0.0105528   0.0116381   221.1912128   0.0105338   
04755   220.6730344   0.0105527   0.0116369   220.8841144   0.0105336   110.4054089   73.6036059   0.0003672   221.2420721   0.0105528   0.0116403   221.6287593   0.0105338   
04756   221.1060791   0.0105527   0.0116391   221.318067   0.0105336   110.6221017   73.7480678   0.0003679   221.6750094   0.0105528   0.0116424   222.0630814   0.0105338   
04757   221.5254489   0.0105528   0.0116412   221.7373519   0.0105336   110.8313978   73.8875985   0.0003686   222.1056947   0.0105528   0.0116446   222.4959157   0.0105338   
04758   221.9438583   0.0105529   0.0116434   222.1576161   0.0105337   111.0413149   74.0275433   0.0003692   222.5428714   0.0105528   0.0116468   222.9347871   0.0105338   
04759   222.3772997   0.0105529   0.0116456   222.5925479   0.0105337   111.2585543   74.1723695   0.0003699   222.9783036   0.0105528   0.011649   223.3720519   0.0105338   
04760   222.7596629   0.010553   0.0116477   222.9745586   0.0105339   111.449762   74.2998413   0.0003705   223.370327   0.0105529   0.0116511   223.7535966   0.0105339   
04761   223.1541998   0.0105531   0.0116497   223.3696135   0.010534   111.6471845   74.4314563   0.0003711   223.7838743   0.0105529   0.0116531   224.1661589   0.0105339   
04762   223.1879766   0.0105555   0.0116523   223.4097986   0.0105363   111.6670528   74.4447019   0.0003712   223.705794   0.0105567   0.0116565   224.0893179   0.0105376   
04763   223.4956467   0.010556   0.0116543   223.7152439   0.0105368   111.8196461   74.5464307   0.0003717   223.9452848   0.0105576   0.0116586   224.3309479   0.0105386   
04764   223.6045366   0.0105563   0.0116552   223.8192256   0.0105372   111.8086225   74.5390816   0.0003718   224.1389714   0.0105576   0.0116596   224.5100554   0.0105386   
04765   214.7969005   0.0106167   0.0116714   214.9862771   0.0105975   107.3973076   71.598205   0.000358   215.1826452   0.0106188   0.0116759   215.5232651   0.0105998   
04766   215.234167   0.0106167   0.0116736   215.4246614   0.0105975   107.6162314   71.7441543   0.0003586   215.6182116   0.0106188   0.0116781   215.9605689   0.0105998   
04767   215.6714348   0.0106167   0.0116758   215.8630458   0.0105975   107.8351554   71.8901036   0.0003593   216.0537795   0.0106188   0.0116803   216.3978731   0.0105998   
04768   216.0996212   0.0106167   0.011678   216.2925643   0.0105975   108.0493972   72.0329314   0.00036   216.4921144   0.0106188   0.0116825   216.8378019   0.0105998   
04769   216.5368916   0.0106167   0.0116801   216.7309487   0.0105975   108.2683214   72.1788809   0.0003607   216.9276842   0.0106188   0.0116847   217.2751059   0.0105998   
04770   216.9732319   0.0106167   0.0116823   217.1684221   0.0105975   108.4867992   72.3245328   0.0003614   217.3635781   0.0106188   0.0116868   217.7126363   0.0105998   
04771   217.4105044   0.0106167   0.0116845   217.6068064   0.0105975   108.7057232   72.4704821   0.0003621   217.79915   0.0106188   0.011689   218.1499404   0.0105998   
04772   217.8471137   0.0106167   0.0116867   218.0445433   0.0105975   108.9243446   72.6162297   0.0003627   218.2348703   0.0106188   0.0116912   218.5875281   0.0105998   
04773   218.2827379   0.0106167   0.0116889   218.4813092   0.0105975   109.1424655   72.7616437   0.0003634   218.6710427   0.0106188   0.0116934   219.0251964   0.0105998   
04774   218.7193488   0.0106167   0.0116911   218.9190441   0.0105976   109.3610853   72.9073902   0.0003641   219.1068031   0.0106188   0.0116956   219.462733   0.0105998   
04775   219.1551398   0.0106167   0.0116933   219.3559709   0.0105976   109.5792895   73.0528597   0.0003648   219.5431424   0.0106188   0.0116978   219.8999899   0.0105998   
04776   219.5758011   0.0106169   0.0116955   219.7779506   0.0105977   109.7900395   73.1933596   0.0003654   219.9845191   0.0106188   0.0117   220.3410139   0.0105998   
04777   219.9996012   0.0106169   0.0116977   220.2031699   0.0105978   110.0023941   73.3349294   0.0003661   220.424006   0.0106188   0.0117022   220.782478   0.0105998   
04778   220.4353312   0.010617   0.0116999   220.6400089   0.0105978   110.2205472   73.4803648   0.0003668   220.8600611   0.0106188   0.0117043   221.2202537   0.0105998   
04779   220.8687509   0.010617   0.0117021   221.0745917   0.0105978   110.4375244   73.6250162   0.0003675   221.2961707   0.0106188   0.0117065   221.6595819   0.0105998   
04780   221.3060345   0.010617   0.0117043   221.512976   0.0105978   110.6564482   73.7709654   0.0003682   221.7317524   0.0106188   0.0117087   222.0968856   0.0105998   
04781   221.7433192   0.010617   0.0117065   221.9513604   0.0105978   110.8753725   73.916915   0.0003688   222.1673352   0.0106188   0.0117109   222.5341897   0.0105998   
04782   222.1762018   0.010617   0.0117087   222.3854472   0.0105978   111.0922356   74.0614904   0.0003695   222.5592843   0.010619   0.0117131   222.935245   0.0106   
04783   222.5904151   0.0106171   0.0117109   222.8012019   0.010598   111.299871   74.199914   0.0003702   222.8152674   0.0106199   0.0117153   223.2022327   0.0106009   
04784   223.0277038   0.0106171   0.0117131   223.2395862   0.010598   111.518795   74.3458634   0.0003709   223.2508588   0.0106199   0.0117175   223.6395369   0.0106009   
04785   223.3683924   0.0106177   0.0117153   223.5833428   0.0105985   111.690072   74.460048   0.0003714   223.6954215   0.01062   0.0117197   224.075768   0.0106009   
04786   223.772511   0.0106178   0.0117175   223.9889007   0.0105986   111.8924321   74.5949547   0.000372   224.1267545   0.01062   0.0117219   224.5083453   0.0106009   
04787   223.9965771   0.0106191   0.0117199   224.213982   0.0105999   112.0052692   74.6701795   0.0003724   224.5652363   0.0106201   0.0117241   224.931435   0.010601   
04788   224.3653945   0.0106194   0.011722   224.5844434   0.0106002   112.1904701   74.7936467   0.000373   224.9662667   0.0106203   0.0117263   225.3157619   0.0106012   
04789   213.9061484   0.0106906   0.0117407   214.0862879   0.0106713   106.9468592   71.2979061   0.0003566   214.043068   0.0106937   0.0117452   214.442968   0.0106747   
04790   214.3283496   0.0106907   0.011743   214.5100777   0.0106714   107.158494   71.438996   0.0003572   214.4827256   0.0106937   0.0117474   214.8850655   0.0106747   
04791   214.7656023   0.0106907   0.0117451   214.9484621   0.0106714   107.3774177   71.5849452   0.0003579   214.918285   0.0106937   0.0117496   215.3223699   0.0106747   
04792   215.1985925   0.0106907   0.0117473   215.3827639   0.0106715   107.5943226   71.7295484   0.0003586   215.355091   0.0106937   0.0117518   215.7609241   0.0106747   
04793   215.6358479   0.0106907   0.0117495   215.8211482   0.0106715   107.8132463   71.8754975   0.0003593   215.7906524   0.0106937   0.0117539   216.1982286   0.0106747   
04794   216.0711058   0.0106907   0.0117517   216.2576443   0.0106715   108.0312314   72.0208209   0.0003599   216.2268007   0.0106937   0.0117561   216.6360921   0.0106747   
04795   216.4968557   0.0106908   0.0117539   216.6848473   0.0106715   108.2446018   72.1630679   0.0003606   216.6657699   0.0106937   0.0117583   217.0768035   0.0106747   
04796   216.9341154   0.0106908   0.0117561   217.1232316   0.0106715   108.4635256   72.3090171   0.0003613   217.1013351   0.0106937   0.0117605   217.5141076   0.0106747   
04797   217.3673445   0.0106908   0.0117583   217.5577336   0.0106716   108.6805145   72.4536764   0.000362   217.5381717   0.0106937   0.0117627   217.9525676   0.0106747   
04798   217.7900406   0.0106909   0.0117605   217.9818745   0.0106717   108.8923403   72.5948935   0.0003626   217.9792254   0.0106937   0.0117649   218.3915109   0.0106747   
04799   218.2273046   0.0106909   0.0117627   218.4202589   0.0106717   109.1112644   72.7408429   0.0003633   218.4147951   0.0106937   0.0117671   218.8288149   0.0106747   
04800   218.6504191   0.010691   0.0117649   218.8450064   0.0106717   109.3233761   72.8822507   0.000364   218.8536793   0.0106937   0.0117693   219.2704592   0.0106747   
04801   219.0527633   0.0106912   0.0117672   219.2492667   0.010672   109.5252593   73.0168395   0.0003646   219.2986549   0.0106937   0.0117715   219.7190109   0.0106747   
04802   219.4900334   0.0106912   0.0117694   219.687651   0.010672   109.7441834   73.1627889   0.0003653   219.7342306   0.0106937   0.0117737   220.156315   0.0106747   
04803   219.6995453   0.0106927   0.0117719   219.9015866   0.0106734   109.8509826   73.2339884   0.0003656   220.1816899   0.010694   0.0117762   220.6047515   0.0106749   
04804   220.1368247   0.0106927   0.0117741   220.3399709   0.0106734   110.0699068   73.3799379   0.0003663   220.6172682   0.010694   0.0117784   221.0420554   0.0106749   
04805   220.5691946   0.0106927   0.0117763   220.7735526   0.0106735   110.286445   73.5242966   0.000367   221.0555947   0.010694   0.0117806   221.4789098   0.0106749   
04806   221.0064763   0.0106927   0.0117785   221.2119369   0.0106735   110.5053691   73.6702461   0.0003677   221.4911752   0.010694   0.0117828   221.9162136   0.0106749   
04807   221.4343318   0.0106928   0.0117807   221.6408686   0.0106735   110.7196264   73.8130843   0.0003684   221.9294361   0.010694   0.011785   222.3565576   0.0106749   
04808   221.8716157   0.0106928   0.0117828   222.079253   0.0106735   110.9385504   73.9590336   0.000369   222.3650185   0.010694   0.0117872   222.7938618   0.0106749   
04809   222.2882137   0.0106929   0.0117851   222.4973872   0.0106737   111.1474092   74.0982728   0.0003697   222.7853187   0.0106941   0.0117894   223.2115335   0.0106751   
04810   222.707611   0.010693   0.0117873   222.9181808   0.0106738   111.3575403   74.2383602   0.0003704   223.1809303   0.0106944   0.0117916   223.6072395   0.0106753   
04811   223.0986856   0.0106933   0.0117895   223.3108248   0.010674   111.5535684   74.3690456   0.000371   223.6297687   0.0106944   0.0117938   224.0494678   0.0106753   
04812   223.4242877   0.010694   0.0117919   223.6373586   0.0106748   111.717211   74.4781407   0.0003715   224.0083409   0.0106948   0.0117962   224.4232488   0.0106758   
04813   223.8437889   0.0106941   0.0117941   224.0581748   0.0106749   111.9274366   74.6182911   0.0003721   224.4509696   0.0106948   0.0117984   224.8634044   0.0106758   
04814   224.2200359   0.0106945   0.0117964   224.4366789   0.0106753   112.1163006   74.7442004   0.0003727   224.8989525   0.0106948   0.0118006   225.3121501   0.0106758   
04815   224.6359033   0.0106946   0.0117985   224.8536242   0.0106754   112.3247629   74.8831752   0.0003734   225.3191807   0.0106949   0.0118028   225.7293841   0.0106758   
04816   217.2966953   0.0106986   0.0117658   217.5308403   0.0106793   108.6653187   72.4435458   0.0003624   218.062252   0.0106976   0.0117692   218.5048223   0.0106785   
04817   217.7155444   0.0106987   0.011768   217.9508981   0.0106794   108.8746692   72.5831128   0.0003631   218.4706072   0.0106978   0.0117714   218.9115131   0.0106787   
04818   218.1512977   0.0106987   0.0117702   218.3877962   0.0106794   109.0929035   72.7286023   0.0003638   218.9045452   0.0106978   0.0117736   219.3472478   0.0106787   
04819   218.5851148   0.0106987   0.0117723   218.8227097   0.0106794   109.31012   72.8734133   0.0003644   219.336513   0.0106978   0.0117758   219.7809674   0.0106787   
04820   219.0215469   0.0106987   0.0117745   219.2602701   0.0106794   109.5286563   73.0191042   0.0003651   219.7736753   0.0106978   0.011778   220.2195364   0.0106787   
04821   219.4558874   0.0106987   0.0117767   219.6957607   0.0106794   109.7461289   73.164086   0.0003658   220.210144   0.0106978   0.0117802   220.6582591   0.0106787   
04822   219.8661488   0.0106987   0.0117788   220.106987   0.0106795   109.9507201   73.3004801   0.0003665   220.6223856   0.0106978   0.0117822   221.0720179   0.0106787   
04823   220.2918455   0.0106987   0.0117809   220.5339111   0.0106795   110.1637585   73.4425057   0.0003671   221.0460396   0.0106978   0.0117843   221.4977123   0.0106787   
04824   220.7291246   0.0106987   0.0117831   220.9722954   0.0106795   110.3826828   73.5884552   0.0003678   221.481618   0.0106978   0.0117865   221.9350164   0.0106787   
04825   221.1540112   0.0106988   0.0117853   221.3987665   0.0106795   110.5952726   73.7301817   0.0003685   221.9130209   0.0106978   0.0117887   222.3686743   0.0106787   
04826   217.5701988   0.0107251   0.0117936   217.8078871   0.0107058   108.8010166   72.5340111   0.0003628   217.6605008   0.0107287   0.011798   218.0333079   0.0107095   
04827   218.007429   0.0107251   0.0117957   218.2462714   0.0107058   109.019941   72.6799606   0.0003635   218.0960401   0.0107287   0.0118002   218.4706122   0.0107095   
04828   218.4444379   0.0107251   0.0117979   218.6844445   0.0107058   109.238764   72.8258427   0.0003642   218.5318156   0.0107287   0.0118024   218.9081711   0.0107095   
04829   218.8629729   0.0107253   0.0118001   219.1054147   0.0107059   109.4489055   72.965937   0.0003649   218.9677689   0.0107287   0.0118046   219.3487868   0.0107095   
04830   219.2892936   0.0107253   0.0118023   219.5342775   0.010706   109.6630509   73.1087006   0.0003655   219.4066066   0.0107287   0.0118068   219.7905055   0.0107095   
04831   219.7219488   0.0107253   0.0118045   219.967982   0.010706   109.8798192   73.2532128   0.0003662   219.8422624   0.0107287   0.0118089   220.2283915   0.0107095   
04832   220.1485331   0.0107254   0.0118067   220.3950903   0.010706   110.0931446   73.3954298   0.0003669   220.2778299   0.0107287   0.0118111   220.6670514   0.0107095   
04833   220.5789982   0.0107254   0.0118089   220.8268227   0.0107061   110.308707   73.539138   0.0003676   220.7149649   0.0107287   0.0118133   221.1058622   0.0107095   
04834   221.0007152   0.0107255   0.0118111   221.2497227   0.0107062   110.5199089   73.6799392   0.0003682   221.1504904   0.0107287   0.0118155   221.5440673   0.0107095   
04835   221.3659716   0.010726   0.0118134   221.6189094   0.0107066   110.7050517   73.8033678   0.0003688   221.2327105   0.0107308   0.0118181   221.6498373   0.0107117   
04836   221.8023306   0.010726   0.0118156   222.0564313   0.0107066   110.9235096   73.9490064   0.0003695   221.6684301   0.0107308   0.0118203   222.0874018   0.0107117   
04837   221.9758713   0.0107266   0.0118171   222.2209835   0.0107073   111.0057145   74.0038096   0.0003697   222.0560913   0.0107308   0.0118222   222.460677   0.0107117   
04838   222.4131248   0.0107266   0.0118193   222.6593679   0.0107073   111.2246386   74.1497591   0.0003704   222.4916505   0.0107308   0.0118244   222.8979811   0.0107117   
04839   222.8466968   0.0107267   0.0118215   223.0946717   0.0107073   111.4419986   74.2946657   0.0003711   222.925454   0.0107308   0.0118266   223.33378   0.0107117   
04840   223.2016121   0.0107271   0.0118237   223.4509559   0.0107077   111.6204154   74.4136103   0.0003717   223.3771669   0.0107308   0.0118288   223.7871696   0.0107117   
04841   223.6040995   0.0107273   0.011826   223.8543702   0.010708   111.8218891   74.5479261   0.0003723   223.8229347   0.0107308   0.0118311   224.2348735   0.0107117   
04842   224.0023084   0.0107274   0.0118281   224.2533192   0.0107081   112.021048   74.6806987   0.0003729   224.245377   0.0107308   0.0118332   224.6577008   0.0107117   
04843   224.3473093   0.010728   0.0118304   224.6002658   0.0107086   112.1944547   74.7963031   0.0003735   224.707984   0.0107308   0.0118355   225.1202478   0.0107117   
04844   224.6756416   0.0107286   0.0118326   224.9291665   0.0107093   112.3587098   74.9058065   0.000374   224.5397052   0.0107339   0.0118378   224.9923011   0.0107147   
04845   218.1620087   0.0107556   0.0118269   218.3937325   0.0107361   109.0936979   72.7291319   0.0003638   218.0071587   0.0107654   0.0118365   218.4575882   0.0107461   
04846   218.5975554   0.0107556   0.0118291   218.8304589   0.0107361   109.3118375   72.8745583   0.0003644   218.4408925   0.0107654   0.0118387   218.8930696   0.0107461   
04847   219.031476   0.0107556   0.0118313   219.2655946   0.0107362   109.529147   73.0194314   0.0003651   218.8724884   0.0107654   0.0118409   219.3264948   0.0107461   
04848   219.4674028   0.0107556   0.0118335   219.7020994   0.0107362   109.7470752   73.1647168   0.0003658   219.3071436   0.0107654   0.0118431   219.7627728   0.0107461   
04849   219.8993422   0.0107556   0.0118357   220.1355777   0.0107362   109.9635512   73.3090342   0.0003665   219.7408422   0.0107654   0.0118452   220.1984196   0.0107461   
04850   220.302674   0.0107557   0.0118377   220.5404562   0.0107362   110.1656919   73.4437946   0.0003671   220.154196   0.0107654   0.0118473   220.6115477   0.0107461   
04851   220.7399415   0.0107557   0.0118399   220.9788406   0.0107362   110.3846158   73.5897439   0.0003678   220.5897606   0.0107654   0.0118495   221.0488515   0.0107461   
04852   221.1733541   0.0107557   0.0118421   221.4130277   0.0107362   110.6014264   73.7342842   0.0003685   221.0223919   0.0107654   0.0118516   221.4826275   0.0107461   
04853   221.5991384   0.0107557   0.0118443   221.8403545   0.0107363   110.8148943   73.8765962   0.0003691   221.4548087   0.0107654   0.0118538   221.9171936   0.0107461   
04854   222.0364097   0.0107557   0.0118465   222.2787388   0.0107363   111.0338183   74.0225455   0.0003698   221.8903763   0.0107654   0.011856   222.3544975   0.0107461   
04855   222.4736823   0.0107557   0.0118487   222.7171232   0.0107363   111.2527423   74.1684948   0.0003705   222.3259453   0.0107654   0.0118582   222.7918014   0.0107461   
04856   222.9051279   0.0107557   0.0118508   223.1495353   0.0107363   111.4686107   74.3124071   0.0003712   222.7549965   0.0107654   0.0118603   223.222449   0.0107461   
04857   223.3415759   0.0107557   0.011853   223.5870285   0.0107363   111.6870774   74.4580516   0.0003719   223.1899375   0.0107654   0.0118625   223.6590101   0.0107461   
04858   223.7539134   0.0107559   0.0118552   224.0019814   0.0107364   111.894393   74.596262   0.0003725   223.6212358   0.0107654   0.0118647   224.0926453   0.0107461   
04859   224.1820436   0.0107559   0.0118574   224.4314045   0.0107365   112.1089285   74.7392857   0.0003732   224.0537856   0.0107654   0.0118668   224.5268395   0.0107461   
04860   224.6066379   0.010756   0.0118596   224.8574791   0.0107365   112.3219054   74.8812703   0.0003739   224.4761845   0.0107654   0.0118689   224.9509524   0.0107461   
04861   225.0030071   0.0107562   0.0118618   225.2562797   0.0107368   112.5210524   75.014035   0.0003745   224.9153626   0.0107654   0.0118711   225.3935227   0.0107461   
04862   225.2684052   0.0107569   0.0118638   225.5238144   0.0107375   112.6558877   75.1039251   0.0003749   225.1551166   0.0107661   0.0118731   225.6504566   0.0107468   
04863   225.4195277   0.0107577   0.0118654   225.6726712   0.0107383   112.7303647   75.1535765   0.0003752   225.4563636   0.0107662   0.0118746   225.9478538   0.0107469   
04864   225.8004159   0.0107579   0.0118675   226.0548874   0.0107385   112.9213174   75.2808783   0.0003758   225.8643025   0.0107662   0.0118767   226.3513633   0.0107469   
04865   215.4669585   0.0108282   0.011886   215.6869029   0.0108088   107.7423982   71.8282655   0.0003596   215.2177407   0.0108384   0.0118954   215.6088931   0.0108191   
04866   215.9042042   0.0108282   0.0118882   216.1252873   0.0108088   107.9613223   71.9742148   0.0003602   215.6532812   0.0108384   0.0118976   216.0461971   0.0108191   
04867   216.3414511   0.0108282   0.0118904   216.5636716   0.0108088   108.1802461   72.1201641   0.0003609   216.0888229   0.0108384   0.0118998   216.4835011   0.0108191   
04868   216.7786992   0.0108282   0.0118926   217.002056   0.0108088   108.3991701   72.2661134   0.0003616   216.5243654   0.0108384   0.011902   216.9208054   0.0108191   
04869   217.2159486   0.0108282   0.0118948   217.4404403   0.0108088   108.6180943   72.4120628   0.0003623   216.9599094   0.0108384   0.0119042   217.3581096   0.0108191   
04870   217.6531991   0.0108282   0.011897   217.8788247   0.0108088   108.8370183   72.5580122   0.000363   217.3954545   0.0108384   0.0119063   217.7954135   0.0108191   
04871   218.0904508   0.0108282   0.0118992   218.317209   0.0108088   109.0559425   72.7039616   0.0003637   217.8310006   0.0108384   0.0119085   218.2327175   0.0108191   
04872   218.5268038   0.0108282   0.0119014   218.7547133   0.0108088   109.2744075   72.849605   0.0003643   218.2667987   0.0108384   0.0119107   218.6703215   0.0108191   
04873   218.9620666   0.0108283   0.0119035   219.1911522   0.0108088   109.4923961   72.9949307   0.000365   218.7029494   0.0108384   0.0119129   219.1082292   0.0108191   
04874   219.3993218   0.0108283   0.0119057   219.6295366   0.0108088   109.7113199   73.1408799   0.0003657   219.1384988   0.0108384   0.0119151   219.5455332   0.0108191   
04875   219.8289829   0.0108283   0.0119079   220.060477   0.0108088   109.9265721   73.2843814   0.0003664   219.5771898   0.0108384   0.0119173   219.9833964   0.0108191   
04876   220.2657014   0.0108283   0.0119101   220.4983351   0.0108088   110.1452226   73.4301484   0.0003671   220.0129107   0.0108384   0.0119194   220.4208633   0.0108191   
04877   220.7029605   0.0108283   0.0119123   220.9367195   0.0108088   110.3641466   73.5760977   0.0003678   220.4484643   0.0108384   0.0119216   220.8581675   0.0108191   
04878   221.0894385   0.0108286   0.0119146   221.3257436   0.0108092   110.5584623   73.7056415   0.0003684   220.8990387   0.0108384   0.0119239   221.3109922   0.0108191   
04879   221.5267027   0.0108286   0.0119168   221.764128   0.0108092   110.7773861   73.8515907   0.000369   221.3345945   0.0108384   0.0119261   221.7482959   0.0108191   
04880   221.9561184   0.0108287   0.011919   222.1946897   0.0108092   110.9923052   73.9948701   0.0003697   221.77263   0.0108384   0.0119283   222.1880369   0.0108191   
04881   222.3933848   0.0108287   0.0119212   222.633074   0.0108092   111.2112294   74.1408196   0.0003704   222.208188   0.0108384   0.0119304   222.6253411   0.0108191   
04882   222.8306524   0.0108287   0.0119233   223.0714583   0.0108092   111.4301535   74.286769   0.0003711   222.6437467   0.0108384   0.0119326   223.062645   0.0108191   
04883   223.2596805   0.0108287   0.0119256   223.5017145   0.0108093   111.6449099   74.42994   0.0003718   223.0818905   0.0108384   0.0119348   223.5023887   0.0108191   
04884   223.6825087   0.0108288   0.0119278   223.9259735   0.0108094   111.8569414   74.5712943   0.0003724   223.5218914   0.0108384   0.011937   223.9435355   0.0108191   
04885   224.1197803   0.0108288   0.01193   224.3643578   0.0108094   112.0758654   74.7172436   0.0003731   223.9574538   0.0108384   0.0119392   224.3808398   0.0108191   
04886   224.5556048   0.0108288   0.0119321   224.8013541   0.0108094   112.294119   74.862746   0.0003738   224.3932408   0.0108384   0.0119414   224.8185003   0.0108191   
04887   224.9912053   0.0108288   0.0119343   225.2381185   0.0108094   112.5122065   75.0081377   0.0003745   224.8290294   0.0108384   0.0119436   225.2561105   0.0108191   
04888   225.4101464   0.010829   0.0119365   225.6586698   0.0108095   112.722342   75.148228   0.0003751   225.2224868   0.0108386   0.0119458   225.6510566   0.0108193   
04889   225.320871   0.0108323   0.0119394   225.571262   0.0108128   112.6781619   75.1187746   0.000375   225.4371308   0.0108403   0.0119486   225.9136724   0.010821   
04890   225.7426519   0.0108323   0.0119416   225.9939278   0.0108129   112.8891786   75.2594524   0.0003757   225.8721921   0.0108403   0.0119508   226.3498653   0.010821   
04891   226.0509606   0.0108331   0.0119439   226.3013712   0.0108136   113.0429455   75.3619637   0.0003762   226.0446881   0.0108418   0.0119531   226.527065   0.0108225   
04892   226.37189   0.0108338   0.0119462   226.6246531   0.0108143   113.2048298   75.4698866   0.0003767   226.4970821   0.0108418   0.0119554   226.9800973   0.0108225   
04893   218.0246197   0.0108914   0.0119618   218.2269634   0.0108719   109.009678   72.6731187   0.0003635   218.2163812   0.0108992   0.0119712   218.6324919   0.0108798   
04894   218.4618224   0.0108914   0.011964   218.6653478   0.0108719   109.2286022   72.8190681   0.0003642   218.6518969   0.0108992   0.0119733   219.0697962   0.0108798   
04895   218.8990263   0.0108914   0.0119662   219.1037321   0.0108719   109.4475261   72.9650174   0.0003649   219.0874136   0.0108992   0.0119755   219.5071002   0.0108798   
04896   219.3328792   0.0108914   0.0119684   219.5388251   0.0108719   109.6648256   73.1098837   0.0003656   219.5239741   0.0108992   0.0119777   219.9453901   0.0108798   
04897   219.7691733   0.0108914   0.0119705   219.9763269   0.0108719   109.8832991   73.2555327   0.0003663   219.959761   0.0108992   0.0119799   220.3829691   0.0108798   
04898   220.1993656   0.0108915   0.0119727   220.4079508   0.0108719   110.0988506   73.3992337   0.0003669   220.3973807   0.0108992   0.0119821   220.822368   0.0108798   
04899   220.6357016   0.0108915   0.0119749   220.8454821   0.0108719   110.3173392   73.5448928   0.0003676   220.8331656   0.0108992   0.0119843   221.2599348   0.0108798   
04900   221.0100754   0.0108919   0.0119772   221.2228649   0.0108723   110.5059196   73.670613   0.0003682   221.2873981   0.0108992   0.0119865   221.7163689   0.0108798   
04901   221.4121549   0.0108921   0.0119795   221.6270022   0.0108725   110.7079341   73.8052894   0.0003688   221.7334567   0.0108992   0.0119888   222.1637336   0.0108798   
04902   221.8413481   0.0108921   0.0119817   222.0575601   0.0108726   110.9229591   73.9486394   0.0003695   222.171636   0.0108992   0.011991   222.602955   0.0108798   
04903   222.2776503   0.0108922   0.0119839   222.4950545   0.0108726   111.1414482   74.0942988   0.0003702   222.6073658   0.0108992   0.0119932   223.0406264   0.0108798   
04904   222.71207   0.0108922   0.011986   222.930694   0.0108726   111.3589853   74.2393235   0.0003709   223.0437566   0.0108992   0.0119953   223.4787462   0.0108798   
04905   223.1172555   0.0108924   0.0119883   223.337844   0.0108728   111.5624515   74.3749677   0.0003715   223.4896394   0.0108992   0.0119976   223.9236977   0.0108798   
04906   223.5502911   0.0108924   0.0119905   223.7721341   0.0108729   111.7793189   74.519546   0.0003722   223.926429   0.0108992   0.0119998   224.3621918   0.0108798   
04907   223.9652602   0.0108925   0.0119927   224.1888073   0.010873   111.9873308   74.6582205   0.0003729   224.3688774   0.0108992   0.012002   224.8060136   0.0108798   
04908   224.2839633   0.0108933   0.0119951   224.5101147   0.0108738   112.1475859   74.7650572   0.0003734   224.669862   0.0109   0.0120043   225.1134349   0.0108807   
04909   224.7109949   0.0108934   0.0119973   224.9383437   0.0108738   112.3614532   74.9076355   0.000374   225.0388869   0.0109004   0.0120065   225.4810036   0.010881   
04910   225.1209974   0.0108935   0.0119995   225.3491974   0.010874   112.5666623   75.0444416   0.0003747   225.481791   0.0109004   0.0120088   225.9256964   0.010881   
04911   225.5139774   0.0108938   0.0120017   225.7430102   0.0108742   112.7630605   75.1753737   0.0003753   225.7677207   0.0109012   0.012011   226.2237005   0.0108818   
04912   225.9358956   0.0108939   0.0120039   226.1659268   0.0108743   112.9742833   75.3161888   0.0003759   226.1745695   0.0109013   0.0120132   226.6379987   0.0108819   
04913   226.3194077   0.0108942   0.0120061   226.5504769   0.0108746   113.1672893   75.4448595   0.0003765   226.5036267   0.0109019   0.0120154   226.970606   0.0108825   
04914   226.6149453   0.010895   0.0120085   226.8480177   0.0108755   113.3159635   75.5439756   0.000377   226.2593225   0.0109054   0.0120177   226.7581432   0.010886   
04915   226.9161578   0.0108956   0.0120106   227.1483899   0.0108761   113.4664962   75.6443308   0.0003775   226.5946986   0.0109059   0.0120199   227.0879298   0.0108865   
04916   227.2159291   0.0108959   0.0120123   227.4519811   0.0108763   113.6185341   75.7456894   0.000378   226.8616257   0.0109059   0.0120213   227.3617291   0.0108865   
04917   218.0287379   0.0109587   0.0120291   218.222112   0.0109391   109.0080696   72.6720464   0.0003635   217.4346894   0.0109703   0.0120383   217.8959539   0.0109508   
04918   218.4551641   0.0109588   0.0120313   218.6502588   0.0109392   109.2218858   72.8145905   0.0003642   217.8727401   0.0109703   0.0120405   218.3368686   0.0109508   
04919   218.8923639   0.0109588   0.0120335   219.0886431   0.0109392   109.44081   72.96054   0.0003649   218.3082435   0.0109703   0.0120427   218.7741723   0.0109508   
04920   219.2851936   0.0109591   0.0120357   219.4837075   0.0109395   109.6380835   73.0920557   0.0003655   218.757098   0.0109703   0.0120449   219.2236297   0.0109508   
04921   219.7223982   0.0109591   0.0120379   219.9220919   0.0109395   109.8570075   73.238005   0.0003662   219.1926052   0.0109703   0.0120471   219.6609338   0.0109508   
04922   220.1080014   0.0109594   0.0120402   220.3106098   0.0109398   110.0509355   73.3672903   0.0003668   219.6419605   0.0109703   0.0120494   220.1131829   0.0109508   
04923   220.5345742   0.0109595   0.0120424   220.7384975   0.0109399   110.2645811   73.5097207   0.0003675   220.0819929   0.0109703   0.0120516   220.5531519   0.0109508   
04924   220.9655076   0.0109595   0.0120446   221.170685   0.0109399   110.480418   73.653612   0.0003681   220.5193362   0.0109703   0.0120538   220.9924601   0.0109508   
04925   221.3841363   0.0109596   0.0120468   221.5906496   0.01094   110.6902466   73.7934977   0.0003688   220.9616238   0.0109703   0.012056   221.4352325   0.0109508   
04926   221.787578   0.0109599   0.012049   221.9957815   0.0109403   110.8926644   73.9284429   0.0003694   221.2829074   0.0109708   0.0120582   221.7747251   0.0109514   
04927   222.2096149   0.01096   0.0120512   222.419408   0.0109404   111.1041988   74.0694659   0.0003701   221.7224532   0.0109708   0.0120604   222.2163972   0.0109514   
04928   222.6468352   0.01096   0.0120534   222.8577924   0.0109404   111.323123   74.2154153   0.0003708   222.1579731   0.0109708   0.0120626   222.6537016   0.0109514   
04929   223.0089063   0.0109604   0.0120557   223.2208876   0.0109408   111.5041896   74.3361264   0.0003713   222.3714735   0.0109721   0.0120649   222.8724727   0.0109527   
04930   223.4374057   0.0109605   0.0120579   223.6506123   0.0109409   111.718789   74.4791927   0.000372   222.8107375   0.0109721   0.0120671   223.3119296   0.0109527   
04931   223.874632   0.0109605   0.0120601   224.0889967   0.0109409   111.9377132   74.6251421   0.0003727   223.2462703   0.0109721   0.0120693   223.749234   0.0109527   
04932   224.2955934   0.0109606   0.0120623   224.5113341   0.010941   112.1485017   74.7656678   0.0003734   223.6876841   0.0109721   0.0120715   224.1904249   0.0109527   
04933   224.7264884   0.0109607   0.0120645   224.9437336   0.010941   112.3644306   74.9096204   0.000374   224.124163   0.0109721   0.0120737   224.6288873   0.0109527   
04934   225.1631008   0.0109607   0.0120667   225.3815653   0.010941   112.5830879   75.055392   0.0003747   224.5596497   0.0109721   0.0120759   225.0662414   0.0109527   
04935   225.5974033   0.0109607   0.0120689   225.8170917   0.0109411   112.8005873   75.2003916   0.0003754   224.9973726   0.0109721   0.0120781   225.5015333   0.0109527   
04936   226.0286056   0.0109607   0.0120711   226.2495206   0.0109411   113.0165464   75.3443643   0.0003761   225.4347119   0.0109721   0.0120803   225.9405571   0.0109527   
04937   226.4558936   0.0109608   0.0120733   226.678282   0.0109412   113.2306337   75.4870891   0.0003767   225.8113806   0.0109724   0.0120825   226.3229624   0.010953   
04938   226.8898957   0.0109608   0.0120755   227.1135179   0.0109412   113.4479792   75.6319861   0.0003774   226.2118016   0.0109726   0.0120847   226.7305988   0.0109531   
04939   227.113936   0.0109621   0.012078   227.3385801   0.0109425   113.561026   75.7073506   0.0003778   226.697747   0.0109726   0.0120871   227.2186779   0.0109531   
04940   227.543337   0.0109622   0.0120802   227.7691525   0.0109426   113.7760779   75.8507186   0.0003784   227.136061   0.0109726   0.0120893   227.657933   0.0109531   
04941   222.2371586   0.0109996   0.012091   222.4460526   0.01098   111.1149813   74.0766542   0.0003701   221.1081116   0.0110137   0.0121002   221.5894772   0.0109942   
04942   222.6743764   0.0109996   0.0120932   222.884437   0.01098   111.3339054   74.2226036   0.0003708   221.5436508   0.0110137   0.0121023   222.026781   0.0109942   
04943   223.1082441   0.0109996   0.0120954   223.3196025   0.01098   111.5512185   74.367479   0.0003715   221.9800078   0.0110137   0.0121045   222.4651628   0.0109942   
04944   223.5322815   0.0109997   0.0120976   223.7450975   0.0109801   111.7634445   74.508963   0.0003722   222.4188793   0.0110137   0.0121067   222.9071301   0.0109942   
04945   223.9646507   0.0109998   0.0120998   224.1786648   0.0109801   111.9798799   74.6532533   0.0003728   222.8561749   0.0110137   0.0121089   223.3455585   0.0109942   
04946   224.3967423   0.0109998   0.012102   224.6120185   0.0109801   112.1963719   74.7975813   0.0003735   223.2932141   0.0110137   0.0121111   223.7845186   0.0109942   
04947   224.8187978   0.0109999   0.0121042   225.0356377   0.0109802   112.4080821   74.9387214   0.0003742   223.7332177   0.0110137   0.0121133   224.2263435   0.0109942   
04948   225.2492232   0.0109999   0.0121064   225.4674221   0.0109803   112.6237601   75.0825068   0.0003749   224.1707176   0.0110137   0.0121155   224.6657301   0.0109942   
04949   225.6581712   0.0110001   0.0121086   225.8780227   0.0109805   112.8288631   75.219242   0.0003755   224.615056   0.0110137   0.0121177   225.1113337   0.0109942   
04950   226.0906518   0.0110001   0.0121108   226.3117729   0.0109805   113.0455171   75.363678   0.0003762   225.0520777   0.0110137   0.0121199   225.549999   0.0109942   
04951   226.5228172   0.0110002   0.012113   226.7452081   0.0109805   113.2620502   75.5080335   0.0003769   225.4892476   0.0110137   0.0121221   225.9886152   0.0109942   
04952   226.9550205   0.0110002   0.0121152   227.1786001   0.0109806   113.4784045   75.6522696   0.0003775   225.9261937   0.0110137   0.0121243   226.4276183   0.0109942   
04953   227.3681693   0.0110003   0.0121174   227.5918606   0.0109807   113.6847397   75.7898264   0.0003782   226.3603404   0.0110137   0.0121265   226.8630333   0.0109942   
04954   227.7502599   0.0110005   0.0121195   227.9734066   0.0109809   113.8761858   75.9174572   0.0003788   226.7951724   0.0110137   0.0121287   227.3003428   0.0109942   
04955   228.1150153   0.0110009   0.0121217   228.3402843   0.0109812   114.0416896   76.0277931   0.0003793   227.222448   0.0110137   0.0121308   227.7185628   0.0109942   
04956   218.1868324   0.0110685   0.0121396   218.3763574   0.0110488   109.0654679   72.7103119   0.0003638   217.9447601   0.0110781   0.0121488   218.4866128   0.0110586   
04957   218.624026   0.0110685   0.0121417   218.8147417   0.0110488   109.284392   72.8562613   0.0003644   218.3802611   0.0110781   0.012151   218.9239169   0.0110586   
04958   219.0601649   0.0110685   0.0121439   219.2521078   0.0110488   109.5028204   73.0018803   0.0003651   218.8160759   0.0110781   0.0121532   219.3615418   0.0110586   
04959   219.4843394   0.0110686   0.0121461   219.677903   0.0110489   109.7154014   73.143601   0.0003658   219.2551733   0.0110781   0.0121554   219.8031602   0.0110586   
04960   219.9140703   0.0110687   0.0121483   220.1090599   0.011049   109.9307127   73.2871418   0.0003665   219.6931531   0.0110781   0.0121576   220.2422209   0.0110586   
04961   220.3477802   0.0110687   0.0121505   220.5440611   0.011049   110.1479903   73.4319935   0.0003671   220.1296766   0.0110781   0.0121597   220.6805899   0.0110586   
04962   220.7844342   0.0110687   0.0121527   220.9819113   0.011049   110.3666499   73.5777666   0.0003678   220.5653522   0.0110781   0.0121619   221.1180561   0.0110586   
04963   221.2160429   0.0110687   0.0121549   221.4148278   0.011049   110.5828757   73.7219171   0.0003685   221.0025413   0.0110781   0.0121641   221.5570734   0.0110586   
04964   221.6411474   0.0110688   0.0121571   221.8414946   0.0110491   110.7959807   73.8639872   0.0003692   221.4412058   0.0110781   0.0121663   221.9983569   0.0110586   
04965   222.0783546   0.0110688   0.0121593   222.2798789   0.0110491   111.014905   74.0099366   0.0003699   221.8767177   0.0110781   0.0121685   222.4356609   0.0110586   
04966   222.5133965   0.0110688   0.0121615   222.7161396   0.0110491   111.2327597   74.1551731   0.0003705   222.3129303   0.0110781   0.0121707   222.8735596   0.0110586   
04967   222.9442762   0.0110689   0.0121637   223.1483697   0.0110492   111.4486096   74.299073   0.0003712   222.7503118   0.0110781   0.0121729   223.3125017   0.0110586   
04968   223.3737314   0.0110689   0.0121659   223.5791285   0.0110492   111.663718   74.4424787   0.0003719   223.1882311   0.0110781   0.0121751   223.752095   0.0110586   
04969   223.8057312   0.011069   0.0121681   224.0124783   0.0110492   111.8801854   74.5867903   0.0003726   223.6245714   0.0110781   0.0121773   224.1918558   0.0110586   
04970   224.2252625   0.0110691   0.0121703   224.4337242   0.0110493   112.0905797   74.7270531   0.0003732   223.933525   0.0110788   0.0121795   224.5030954   0.0110592   
04971   224.6385834   0.0110692   0.0121725   224.84871   0.0110495   112.2976786   74.8651191   0.0003739   224.3762271   0.0110788   0.0121817   224.946637   0.0110592   
04972   225.059347   0.0110693   0.0121747   225.2712069   0.0110496   112.5086955   75.005797   0.0003745   224.8165873   0.0110788   0.0121839   225.38889   0.0110592   
04973   225.4812816   0.0110694   0.012177   225.694728   0.0110497   112.720145   75.1467633   0.0003752   225.2565827   0.0110788   0.0121861   225.8307599   0.0110592   
04974   225.9161735   0.0110694   0.0121791   226.1306502   0.0110497   112.937847   75.291898   0.0003759   225.6917196   0.0110788   0.0121883   226.2674573   0.0110592   
04975   226.3138364   0.0110697   0.0121814   226.5296849   0.01105   113.1371098   75.4247398   0.0003765   226.139653   0.0110788   0.0121905   226.7122493   0.0110592   
04976   226.7228886   0.0110698   0.0121836   226.9398962   0.0110501   113.3419239   75.5612826   0.0003771   226.5818814   0.0110788   0.0121927   227.1557909   0.0110592   
04977   227.1349226   0.01107   0.0121858   227.353587   0.0110503   113.5485084   75.6990056   0.0003778   227.0254077   0.0110788   0.0121949   227.5998666   0.0110592   
04978   216.3949482   0.0110723   0.0121343   216.5734426   0.0110525   108.1669544   72.111303   0.0003609   216.4157063   0.0110788   0.0121418   216.9614635   0.0110592   
04979   216.8303857   0.0110723   0.0121365   217.0100966   0.0110525   108.3850464   72.2566976   0.0003616   216.8493131   0.0110788   0.012144   217.3969301   0.0110592   
04980   217.2660957   0.0110723   0.0121387   217.4468721   0.0110525   108.6031655   72.4021103   0.0003623   217.2837536   0.0110788   0.0121462   217.8329572   0.0110592   
04981   217.6942262   0.0110723   0.0121408   217.8753021   0.0110525   108.8170951   72.5447301   0.000363   217.7128276   0.0110788   0.0121483   218.2623239   0.0110592   
04982   218.1308002   0.0110723   0.012143   218.3131183   0.0110526   109.0357438   72.6904959   0.0003637   218.1481528   0.0110788   0.0121505   218.6994663   0.0110592   
04983   218.563919   0.0110723   0.0121452   218.747127   0.0110526   109.2525151   72.8350101   0.0003643   218.5805361   0.0110788   0.0121527   219.1331398   0.0110592   
04984   219.0011299   0.0110723   0.0121474   219.1855114   0.0110526   109.4714391   72.9809594   0.000365   219.0160582   0.0110788   0.0121548   219.5704439   0.0110592   
04985   219.4325889   0.0110723   0.0121495   219.6180733   0.0110526   109.6874356   73.124957   0.0003657   219.4465192   0.0110788   0.012157   220.0024496   0.0110592   
04986   219.8632448   0.0110723   0.0121517   220.0500161   0.0110526   109.9031054   73.268737   0.0003664   219.8753172   0.0110788   0.0121592   220.4331377   0.0110592   
04987   220.2948759   0.0110723   0.0121538   220.4834604   0.0110526   110.1196316   73.4130878   0.000367   220.3066441   0.0110788   0.0121613   220.8663488   0.0110592   
04988   220.7291959   0.0110723   0.012156   220.9196198   0.0110526   110.3374412   73.5582941   0.0003677   220.7408291   0.0110788   0.0121635   221.3023334   0.0110592   
04989   221.1170048   0.0110725   0.0121582   221.3125578   0.0110528   110.5336615   73.6891077   0.0003683   221.1570204   0.0110788   0.0121656   221.7217753   0.0110592   
04990   221.4624261   0.0110725   0.0121599   221.6576142   0.0110528   110.7063087   73.8042058   0.0003689   221.5105808   0.0110788   0.0121673   222.0733795   0.0110592   
04991   221.8926969   0.0110725   0.0121621   222.0889168   0.0110528   110.9215852   73.9477235   0.0003696   221.9375296   0.0110788   0.0121695   222.5019576   0.0110592   
04992   222.3266837   0.0110725   0.0121643   222.5237713   0.0110528   111.1387357   74.0924905   0.0003702   222.3699232   0.0110788   0.0121716   222.93613   0.0110592   
04993   222.7617692   0.0110725   0.0121665   222.9600347   0.0110528   111.3566002   74.2377335   0.0003709   222.8032654   0.0110788   0.0121738   223.3712778   0.0110592   
04994   223.1855654   0.0110725   0.0121686   223.3853355   0.0110528   111.5688666   74.3792444   0.0003716   223.2255257   0.0110788   0.0121759   223.795552   0.0110592   
04995   223.5784992   0.0110725   0.0121705   223.7781145   0.0110528   111.7650453   74.5100302   0.0003722   223.6209276   0.0110788   0.0121779   224.1906145   0.0110592   
04996   224.0131345   0.0110725   0.0121727   224.2138624   0.0110528   111.9826628   74.6551085   0.0003729   224.0541044   0.0110788   0.0121801   224.6255699   0.0110592   
04997   224.4335258   0.0110725   0.0121748   224.6356606   0.0110528   112.1932884   74.7955256   0.0003735   224.4680277   0.0110788   0.0121822   225.042077   0.0110592   
04998   224.8590035   0.0110726   0.012177   225.0630069   0.0110529   112.4066385   74.937759   0.0003742   224.9029878   0.0110788   0.0121843   225.4795988   0.0110592   
04999   225.2892785   0.0110726   0.0121792   225.4944674   0.0110529   112.6221462   75.0814308   0.0003749   225.3326637   0.0110788   0.0121865   225.9111025   0.0110592   
05000   225.6121425   0.0110726   0.0121808   225.8198856   0.0110529   112.7846764   75.1897843   0.0003754   225.6514202   0.0110788   0.0121881   226.2356266   0.0110592   
05001   226.047027   0.0110726   0.012183   226.2559826   0.0110529   113.0024635   75.3349757   0.0003761   226.0867536   0.0110788   0.0121903   226.6724987   0.0110592   
05002   226.4575445   0.0110728   0.0121852   226.6677391   0.0110531   113.2081325   75.4720883   0.0003767   226.5226476   0.0110788   0.0121925   227.1098437   0.0110592   
05003   226.8048716   0.0110731   0.0121873   227.0150456   0.0110534   113.3816181   75.5877454   0.0003773   226.8153587   0.0110794   0.0121946   227.4203823   0.0110598   
05004   227.2232806   0.0110732   0.0121894   227.4343216   0.0110534   113.5910918   75.7273945   0.0003779   227.2379601   0.0110794   0.0121967   227.8439725   0.0110598   
05005   227.5930059   0.0110735   0.0121916   227.8068636   0.0110538   113.7769574   75.8513049   0.0003785   227.5516432   0.01108   0.0121989   228.1546822   0.0110605   
05006   227.9442006   0.0110739   0.0121938   228.1616954   0.0110542   113.9542163   75.9694775   0.000379   227.9672006   0.01108   0.0122009   228.5707102   0.0110605   
05007   217.4877552   0.0111451   0.0122126   217.6727336   0.0111254   108.7153634   72.4769089   0.0003627   217.4037291   0.0111523   0.0122199   217.8139738   0.0111327   
05008   217.9249575   0.0111451   0.0122148   218.1111179   0.0111254   108.9342874   72.6228583   0.0003633   217.8392402   0.0111523   0.0122221   218.251278   0.0111327   
05009   218.3527953   0.0111452   0.012217   218.5403914   0.0111254   109.1486493   72.7657662   0.000364   218.2312931   0.0111525   0.0122243   218.6549038   0.0111329   
05010   218.7787521   0.0111453   0.0122192   218.9678719   0.0111255   109.362126   72.908084   0.0003647   218.6706219   0.0111525   0.0122265   219.0948314   0.0111329   
05011   219.2159598   0.0111453   0.0122214   219.4062562   0.0111255   109.5810502   73.0540335   0.0003654   219.1061375   0.0111525   0.0122287   219.5321356   0.0111329   
05012   219.6445562   0.0111453   0.0122236   219.8362329   0.0111256   109.7957709   73.1971806   0.000366   219.4982422   0.0111527   0.0122309   219.9350155   0.0111331   
05013   220.081767   0.0111453   0.0122258   220.2746172   0.0111256   110.0146952   73.3431301   0.0003667   219.9337606   0.0111527   0.0122331   220.3723198   0.0111331   
05014   220.5139132   0.0111454   0.012228   220.708077   0.0111256   110.2311569   73.4874379   0.0003674   220.3708268   0.0111527   0.0122353   220.811086   0.0111331   
05015   220.9463868   0.0111454   0.0122302   221.1418505   0.0111256   110.4477687   73.6318458   0.0003681   220.8077584   0.0111527   0.0122374   221.2498234   0.0111331   
05016   221.3764964   0.0111454   0.0122324   221.5733256   0.0111257   110.6632286   73.7754857   0.0003687   221.245348   0.0111527   0.0122396   221.6892739   0.0111331   
05017   221.8029728   0.0111455   0.0122346   222.0012046   0.0111257   110.8769189   73.917946   0.0003694   221.6839122   0.0111527   0.0122418   222.1299953   0.0111331   
05018   222.239267   0.0111455   0.0122368   222.4387002   0.0111257   111.0954009   74.0636006   0.0003701   222.1197025   0.0111527   0.012244   222.5675778   0.0111331   
05019   222.6578195   0.0111456   0.012239   222.8588776   0.0111259   111.3052487   74.2034991   0.0003708   222.5597348   0.0111527   0.0122462   223.0111776   0.0111331   
05020   222.968333   0.0111464   0.0122414   223.1730703   0.0111267   111.4621269   74.3080846   0.0003712   223.0316281   0.0111527   0.0122486   223.4876872   0.0111331   
05021   223.4050818   0.0111464   0.0122435   223.6110039   0.0111267   111.6808262   74.4538841   0.0003719   223.4672982   0.0111527   0.0122508   223.9251312   0.0111331   
05022   223.8381356   0.0111465   0.0122457   224.0453607   0.0111267   111.8977455   74.598497   0.0003726   223.9034228   0.0111527   0.012253   224.3638922   0.0111331   
05023   224.2684989   0.0111465   0.0122479   224.4769948   0.0111267   112.1132845   74.7421897   0.0003733   224.3410431   0.0111527   0.0122552   224.8032907   0.0111331   
05024   224.6993173   0.0111466   0.0122501   224.9090568   0.0111268   112.3290323   74.8860215   0.000374   224.7786571   0.0111527   0.0122574   225.2424163   0.0111331   
05025   225.1194823   0.0111467   0.0122524   225.3307178   0.0111269   112.5395666   75.0263777   0.0003746   225.2184376   0.0111527   0.0122596   225.68416   0.0111331   
05026   225.5198535   0.0111469   0.0122546   225.7329749   0.0111271   112.7403912   75.1602608   0.0003753   225.6649102   0.0111527   0.0122618   226.1324312   0.0111331   
05027   225.9570925   0.0111469   0.0122568   226.1713591   0.0111271   112.9593153   75.3062102   0.0003759   226.1004543   0.0111527   0.012264   226.5697352   0.0111331   
05028   226.3897834   0.0111469   0.012259   226.6053113   0.0111272   113.1760169   75.450678   0.0003766   226.452067   0.0111531   0.0122662   226.9260899   0.0111335   
05029   226.8151853   0.011147   0.0122612   227.0320352   0.0111272   113.3890803   75.5927202   0.0003773   226.8912254   0.0111531   0.0122684   227.366902   0.0111335   
05030   227.2335281   0.0111471   0.0122634   227.451665   0.0111274   113.5985485   75.7323657   0.0003779   227.3321304   0.0111531   0.0122706   227.8105841   0.0111335   
05031   227.6158735   0.0111472   0.0122654   227.8359217   0.0111274   113.7903807   75.8602538   0.0003785   227.7154399   0.0111531   0.0122725   228.198647   0.0111335   
05032   228.0374145   0.0111472   0.0122676   228.2585451   0.0111275   114.0016165   76.0010777   0.0003792   228.1533196   0.0111531   0.0122747   228.636962   0.0111335   
05033   219.5672148   0.0112054   0.0122832   219.7491444   0.0111856   109.7558521   73.1705681   0.0003659   219.4230179   0.0112129   0.0122908   219.9378577   0.0111933   
05034   219.9978052   0.0112055   0.0122854   220.1810371   0.0111856   109.9713899   73.31426   0.0003666   219.8600642   0.0112129   0.012293   220.3774585   0.0111933   
05035   220.4341263   0.0112055   0.0122876   220.6185317   0.0111856   110.1898594   73.4599062   0.0003673   220.2958306   0.0112129   0.0122952   220.8151296   0.0111933   
05036   220.8623347   0.0112055   0.0122898   221.0481594   0.0111857   110.404393   73.6029287   0.0003679   220.7320638   0.0112129   0.0122974   221.2541161   0.0111933   
05037   221.2995504   0.0112055   0.012292   221.4865437   0.0111857   110.6233172   73.7488781   0.0003686   221.1675709   0.0112129   0.0122996   221.6914203   0.0111933   
05038   221.7327817   0.0112056   0.0122942   221.9210733   0.0111857   110.840439   73.893626   0.0003693   221.6040073   0.0112129   0.0123018   222.1298176   0.0111933   
05039   222.1675441   0.0112056   0.0122964   222.3570302   0.0111857   111.0580848   74.0387232   0.00037   222.0401326   0.0112129   0.012304   222.5681864   0.0111933   
05040   222.5974364   0.0112056   0.0122986   222.7880882   0.0111858   111.273397   74.1822647   0.0003707   222.3999683   0.0112133   0.0123062   222.9391993   0.0111937   
05041   223.030297   0.0112056   0.0123008   223.2223084   0.0111858   111.4901604   74.3267736   0.0003713   222.8367411   0.0112133   0.0123083   223.3777792   0.0111937   
05042   223.4521663   0.0112057   0.012303   223.6464087   0.0111859   111.7014838   74.4676559   0.000372   223.2697914   0.0112133   0.0123105   223.8134919   0.0111937   
05043   223.8881068   0.0112057   0.0123052   224.0835056   0.0111859   111.9197729   74.6131819   0.0003727   223.7069503   0.0112133   0.0123127   224.2503756   0.0111937   
05044   224.3253335   0.0112057   0.0123074   224.5218899   0.0111859   112.1386963   74.7591309   0.0003734   224.1424695   0.0112133   0.0123149   224.6876797   0.0111937   
05045   224.5842202   0.0112069   0.0123099   224.7827066   0.0111871   112.2688005   74.845867   0.0003738   224.5377078   0.0112139   0.0123174   225.0740676   0.0111942   
05046   225.0167451   0.0112069   0.012312   225.2163956   0.0111871   112.4855127   74.9903418   0.0003744   224.9764101   0.0112139   0.0123196   225.5144784   0.0111942   
05047   225.4530912   0.0112069   0.0123142   225.6537387   0.0111871   112.7039326   75.135955   0.0003751   225.411857   0.0112139   0.0123218   225.9517464   0.0111942   
05048   225.8655738   0.0112071   0.0123165   226.0683482   0.0111873   112.911126   75.274084   0.0003758   225.8524734   0.0112139   0.012324   226.3950428   0.0111942   
05049   226.2602291   0.0112074   0.0123187   226.4646332   0.0111875   113.1089376   75.4059584   0.0003764   226.1136253   0.0112148   0.0123263   226.6624157   0.0111952   
05050   226.6900591   0.0112074   0.0123209   226.895854   0.0111876   113.3243538   75.5495692   0.0003771   226.5533415   0.0112148   0.0123284   227.0971084   0.0111952   
05051   227.0574751   0.0112079   0.0123232   227.2652005   0.011188   113.5097371   75.6731581   0.0003777   226.9130426   0.0112154   0.0123308   227.4449825   0.0111957   
05052   227.4851543   0.0112079   0.0123254   227.6939372   0.0111881   113.723575   75.8157167   0.0003783   227.3527636   0.0112154   0.012333   227.8917157   0.0111957   
05053   227.9078177   0.011208   0.0123276   228.1179196   0.0111882   113.935346   75.9568974   0.000379   227.7759522   0.0112155   0.0123352   228.3144364   0.0111958   
05054   228.3357118   0.0112081   0.0123298   228.5472076   0.0111883   114.1497267   76.0998178   0.0003797   228.2128958   0.0112155   0.0123374   228.7541203   0.0111958   
05055   228.600552   0.011209   0.0123321   228.8119713   0.0111892   114.3131951   76.2087967   0.000381   228.4927794   0.0112163   0.0123395   228.9978469   0.0111966   
05056   223.1494612   0.0112475   0.0123432   223.3373037   0.0112276   111.5784776   74.3856517   0.0003725   223.3275229   0.0112535   0.0123508   223.8216478   0.0112338   
05057   223.5866855   0.0112475   0.0123454   223.775688   0.0112276   111.7974015   74.531601   0.0003731   223.7630344   0.0112535   0.012353   224.2589518   0.0112338   
05058   223.9943389   0.0112477   0.0123476   224.1846542   0.0112278   112.0016498   74.6677666   0.0003738   224.2174616   0.0112535   0.0123552   224.7057369   0.0112338   
05059   224.4315677   0.0112477   0.0123498   224.6230386   0.0112278   112.2205738   74.8137159   0.0003745   224.6529817   0.0112535   0.0123574   225.1430412   0.0112338   
05060   224.8645958   0.0112477   0.012352   225.0572793   0.0112279   112.4374082   74.9582721   0.0003751   225.0903516   0.0112535   0.0123596   225.5823301   0.0112338   
05061   225.2728115   0.0112479   0.0123543   225.4666461   0.0112281   112.6417571   75.0945048   0.0003758   225.5387816   0.0112535   0.0123619   226.0368784   0.0112338   
05062   225.7095355   0.0112479   0.0123564   225.9045295   0.0112281   112.8604316   75.2402877   0.0003765   225.9744877   0.0112535   0.012364   226.4743437   0.0112338   
05063   226.1409266   0.011248   0.0123586   226.3371646   0.0112281   113.0765234   75.3843489   0.0003771   226.4117874   0.0112535   0.0123662   226.9137383   0.0112338   
05064   226.5765123   0.011248   0.0123608   226.7739418   0.0112281   113.294639   75.5297593   0.0003778   226.8495507   0.0112535   0.0123684   227.3493334   0.0112338   
05065   227.0038611   0.011248   0.012363   227.2027916   0.0112282   113.5088234   75.6725489   0.0003785   227.2878424   0.0112535   0.0123706   227.7897493   0.0112338   
05066   227.4411009   0.011248   0.0123652   227.641176   0.0112282   113.7277474   75.8184982   0.0003792   227.7233726   0.0112535   0.0123728   228.2270535   0.0112338   
05067   227.8730522   0.0112481   0.0123674   228.0744306   0.0112282   113.9441501   75.9627667   0.0003799   228.1602478   0.0112535   0.012375   228.6658649   0.0112338   
05068   228.219887   0.0112487   0.0123698   228.4214851   0.0112288   114.1175929   76.0783953   0.0003804   228.0707983   0.0112562   0.0123774   228.6089334   0.0112365   
05069   228.6571325   0.0112487   0.0123719   228.8598694   0.0112288   114.3365169   76.2243446   0.0003811   228.5063394   0.0112562   0.0123795   229.0462374   0.0112365   
05070   228.9723505   0.0112489   0.0123737   229.1707472   0.011229   114.4923545   76.3282364   0.0003816   228.8910736   0.0112562   0.0123815   229.421232   0.0112365   
05071   229.2344012   0.0112497   0.0123759   229.4359905   0.0112299   114.6249283   76.4166189   0.000382   229.3265396   0.0112562   0.0123836   229.8416431   0.0112365   
05072   229.3891076   0.0112502   0.0123771   229.5916925   0.0112303   114.7341426   76.4894284   0.0003824   229.5628747   0.0112562   0.0123848   230.076216   0.0112365   
05073   229.7179659   0.0112508   0.0123794   229.9229088   0.0112309   114.8998022   76.5998681   0.0003829   229.7723107   0.0112574   0.012387   230.3100537   0.0112376   
05074   220.935994   0.0113109   0.0123954   221.1141921   0.0112909   110.5004209   73.6669473   0.0003692   221.3013341   0.0113162   0.0124032   221.7594653   0.0112964   
05075   221.3718859   0.0113109   0.0123976   221.5512969   0.011291   110.7187049   73.8124699   0.0003699   221.7154182   0.0113163   0.0124054   222.1743422   0.0112965   
05076   221.809112   0.0113109   0.0123998   221.9896813   0.011291   110.9376288   73.9584192   0.0003705   222.1509265   0.0113163   0.0124076   222.6116463   0.0112965   
05077   222.2463393   0.0113109   0.012402   222.4280656   0.011291   111.1565532   74.1043688   0.0003712   222.586436   0.0113163   0.0124098   223.0489507   0.0112965   
05078   222.6688279   0.011311   0.0124042   222.8520292   0.0112911   111.3682548   74.2455032   0.0003719   222.7402692   0.0113177   0.012412   223.2240962   0.0112979   
05079   223.1060584   0.011311   0.0124064   223.2904136   0.0112911   111.5871788   74.3914525   0.0003726   223.1757865   0.0113177   0.0124142   223.6614004   0.0112979   
05080   223.4471769   0.0113116   0.0124087   223.6346145   0.0112917   111.7590245   74.5060164   0.0003731   223.1465   0.0113202   0.0124165   223.6310164   0.0113004   
05081   223.8755881   0.0113116   0.0124109   224.0644397   0.0112917   111.973641   74.649094   0.0003738   223.584586   0.0113202   0.0124187   224.0710652   0.0113004   
05082   224.3081965   0.0113117   0.0124131   224.49827   0.0112917   112.1902804   74.7935202   0.0003745   224.0214765   0.0113202   0.0124209   224.5097383   0.0113004   
05083   224.742308   0.0113117   0.0124153   224.9336408   0.0112918   112.4076893   74.9384595   0.0003751   224.4579828   0.0113202   0.0124231   224.9479076   0.0113004   
05084   225.1776937   0.0113117   0.0124175   225.3702102   0.0112918   112.6257193   75.0838129   0.0003758   224.8940545   0.0113202   0.0124253   225.3857896   0.0113004   
05085   225.6097104   0.0113117   0.0124197   225.8034983   0.0112918   112.8420879   75.2280586   0.0003765   225.3315955   0.0113202   0.0124274   225.8240969   0.0113004   
05086   226.0463029   0.0113117   0.0124219   226.2412524   0.0112918   113.0606947   75.3737965   0.0003772   225.7673295   0.0113202   0.0124296   226.2615861   0.0113004   
05087   226.4782675   0.0113118   0.0124241   226.674522   0.0112919   113.2770552   75.5180368   0.0003779   226.2044102   0.0113202   0.0124318   226.7004984   0.0113004   
05088   226.9105189   0.0113118   0.0124263   227.1080159   0.0112919   113.4935068   75.6623379   0.0003785   226.641293   0.0113202   0.012434   227.1395654   0.0113004   
05089   227.3460242   0.0113118   0.0124285   227.5447053   0.0112919   113.7115827   75.8077218   0.0003792   227.077044   0.0113202   0.0124362   227.5772688   0.0113004   
05090   227.7825032   0.0113118   0.0124307   227.9823229   0.0112919   113.9301254   75.9534169   0.0003799   227.5128184   0.0113202   0.0124384   228.0148144   0.0113004   
05091   228.2014321   0.0113119   0.0124329   228.4024062   0.011292   114.1398525   76.093235   0.0003806   227.9524691   0.0113202   0.0124406   228.4558924   0.0113004   
05092   228.5386145   0.0113126   0.0124352   228.7420089   0.0112926   114.3093152   76.2062101   0.0003811   228.2582258   0.0113209   0.0124429   228.7758435   0.0113011   
05093   221.8167465   0.0113127   0.0124017   222.0146031   0.0112928   110.7400334   73.8266889   0.0004026   221.5626171   0.0113209   0.0124094   222.0764913   0.0113011   
05094   222.2495731   0.0113127   0.0124039   222.4484654   0.0112928   110.9567222   73.9711481   0.0004033   221.9940393   0.0113209   0.0124116   222.5094777   0.0113011   
05095   222.6777314   0.0113127   0.0124061   222.8776732   0.0112928   111.1627131   74.1084754   0.0004039   222.4206923   0.0113209   0.0124137   222.937724   0.0113011   
05096   223.1065301   0.0113127   0.0124082   223.3074999   0.0112928   111.3527813   74.2351876   0.0004045   222.8481935   0.0113209   0.0124158   223.3667751   0.0113011   
05097   223.5426167   0.0113127   0.0124104   223.744749   0.0112928   111.5694778   74.3796519   0.0004052   223.2824505   0.0113209   0.012418   223.8028159   0.0113011   
05098   223.9773172   0.0113127   0.0124126   224.1805635   0.0112928   111.7361379   74.4907586   0.0004067   223.7155101   0.0113209   0.0124202   224.2376047   0.0113011   
05099   224.4111006   0.0113127   0.0124147   224.6154327   0.0112928   111.9569092   74.6379394   0.0004074   224.1478557   0.0113209   0.0124224   224.671629   0.0113011   
05100   224.8435615   0.0113127   0.0124169   225.0489659   0.0112928   112.1735386   74.782359   0.0004081   224.5790369   0.0113209   0.0124245   225.1043995   0.0113011   
05101   225.2736532   0.0113127   0.0124191   225.4800235   0.0112928   112.3885929   74.9257286   0.0004088   225.00814   0.0113209   0.0124267   225.5349159   0.0113011   
05102   225.7104364   0.0113127   0.0124212   225.9179376   0.0112928   112.6072687   75.0715125   0.0004094   225.4432481   0.0113209   0.0124288   225.9717788   0.0113011   
05103   226.1453088   0.0113127   0.0124234   226.3539483   0.0112928   112.825061   75.2167074   0.0004101   225.8775999   0.0113209   0.012431   226.4078576   0.0113011   
05104   226.5412907   0.0113128   0.0124254   226.7508957   0.0112928   113.0234995   75.3489997   0.0004107   226.2762774   0.0113209   0.012433   226.8074084   0.0113011   
05105   226.9560279   0.0113129   0.0124276   227.1677273   0.011293   113.2263945   75.484263   0.0004114   226.7124383   0.0113209   0.0124352   227.2473681   0.0113011   
05106   227.3726424   0.0113129   0.0124298   227.5854416   0.011293   113.4353151   75.6235434   0.000412   227.1392416   0.0113209   0.0124373   227.6755461   0.0113011   
05107   227.8020844   0.0113129   0.0124319   228.0159875   0.011293   113.6502232   75.7668155   0.0004127   227.5690954   0.0113209   0.0124395   228.1070228   0.0113011   
05108   228.2275713   0.011313   0.0124341   228.4425756   0.0112931   113.8634183   75.9089455   0.0004134   228.0029925   0.0113209   0.0124417   228.5429431   0.0113011   
05109   221.5588413   0.0113595   0.012447   221.7343571   0.0113395   110.5122592   73.6748394   0.0004029   221.1611146   0.0113686   0.0124547   221.5606889   0.0113488   
05110   221.9944036   0.0113595   0.0124492   222.1711474   0.0113395   110.73039   73.82026   0.0004036   221.5970864   0.0113686   0.0124569   221.9984555   0.0113488   
05111   222.4309326   0.0113595   0.0124514   222.6089044   0.0113395   110.9489937   73.9659958   0.0004043   222.0327212   0.0113686   0.0124591   222.4359669   0.0113488   
05112   222.8651164   0.0113595   0.0124536   223.0443495   0.0113395   111.1665179   74.1110119   0.0004049   222.4679185   0.0113686   0.0124613   222.8758078   0.0113488   
05113   223.2959087   0.0113596   0.0124558   223.4763369   0.0113396   111.3822072   74.2548048   0.0004056   222.905376   0.0113686   0.0124635   223.3151552   0.0113488   
05114   223.7301008   0.0113596   0.012458   223.9116044   0.0113396   111.5996117   74.3997411   0.0004063   223.3418594   0.0113686   0.0124656   223.7534005   0.0113488   
05115   224.159936   0.0113596   0.0124602   224.3428591   0.0113396   111.8149012   74.5432674   0.000407   223.7794823   0.0113686   0.0124678   224.1928316   0.0113488   
05116   224.5971443   0.0113596   0.0124624   224.7812434   0.0113396   112.0338253   74.6892168   0.0004076   224.21495   0.0113686   0.01247   224.6301355   0.0113488   
05117   225.0343541   0.0113596   0.0124646   225.2196277   0.0113396   112.2527493   74.8351662   0.0004083   224.6504192   0.0113686   0.0124722   225.0674395   0.0113488   
05118   225.4701926   0.0113596   0.0124668   225.6566916   0.0113396   112.4709979   74.9806653   0.000409   225.0864168   0.0113686   0.0124744   225.5048951   0.0113488   
05119   225.9044824   0.0113596   0.012469   226.092202   0.0113397   112.688483   75.1256553   0.0004097   225.5223736   0.0113686   0.0124766   225.9436276   0.0113488   
05120   226.2760722   0.0113601   0.0124713   226.4659761   0.0113401   112.8745454   75.2496969   0.0004103   225.905605   0.011369   0.0124789   226.3169656   0.0113492   
05121   221.5153167   0.0113941   0.0124814   221.6893796   0.0113741   110.4879951   73.6586634   0.0004028   221.2370458   0.0114026   0.0124891   221.6886986   0.0113826   
05122   221.9525145   0.0113941   0.0124836   222.127764   0.0113741   110.7069193   73.8046129   0.0004035   221.6725189   0.0114026   0.0124913   222.1260027   0.0113826   
05123   222.3375924   0.0113944   0.0124859   222.5153157   0.0113744   110.9003308   73.9335539   0.0004041   222.1100287   0.0114027   0.0124935   222.5417007   0.0113828   
05124   222.7733369   0.0113944   0.012488   222.9523167   0.0113744   111.1185718   74.0790479   0.0004048   222.5459465   0.0114027   0.0124957   222.9794405   0.0113828   
05125   223.1983509   0.0113945   0.0124903   223.3787407   0.0113745   111.331487   74.2209913   0.0004054   222.7785524   0.0114037   0.0124979   223.2252572   0.0113838   
05126   223.6305105   0.0113945   0.0124925   223.8121711   0.0113745   111.5480268   74.3653512   0.0004061   223.2162861   0.0114037   0.0125001   223.662789   0.0113838   
05127   224.0657123   0.0113946   0.0124946   224.2486297   0.0113745   111.7660194   74.5106796   0.0004068   223.6523822   0.0114037   0.0125023   224.1006762   0.0113838   
05128   224.5029219   0.0113946   0.0124968   224.687014   0.0113745   111.9849432   74.6566288   0.0004075   224.0878761   0.0114037   0.0125045   224.53798   0.0113838   
05129   224.9339686   0.0113946   0.012499   225.1194027   0.0113746   112.2008511   74.8005674   0.0004082   224.5252425   0.0114037   0.0125067   224.9771494   0.0113838   
05130   225.3450093   0.0113948   0.0125013   225.5325369   0.0113747   112.4070009   74.9380006   0.0004088   224.968149   0.0114037   0.0125089   225.4218427   0.0113838   
05131   225.7800206   0.0113948   0.0125035   225.9687761   0.0113748   112.6248549   75.0832366   0.0004095   225.4043028   0.0114037   0.0125111   225.8598057   0.0113838   
05132   226.2040546   0.0113949   0.0125057   226.3943615   0.0113748   112.8372304   75.2248203   0.0004102   225.8421243   0.0114037   0.0125133   226.2998363   0.0113838   
05133   226.6242737   0.011395   0.0125079   226.8160982   0.0113749   113.0477618   75.3651745   0.0004108   226.2804661   0.0114037   0.0125155   226.74011   0.0113838   
05134   227.0547281   0.011395   0.01251   227.2478326   0.011375   113.2633785   75.508919   0.0004115   226.7140989   0.0114037   0.0125176   227.1758823   0.0113838   
05135   227.4919505   0.011395   0.0125122   227.686217   0.011375   113.4823026   75.6548684   0.0004122   227.1496029   0.0114037   0.0125198   227.6131865   0.0113838   
05136   227.9145222   0.011395   0.0125144   228.1097149   0.011375   113.516907   75.677938   0.0004144   227.5776096   0.0114037   0.012522   228.0424247   0.0113838   
05137   228.3492644   0.011395   0.0125166   228.5456506   0.011375   113.7346303   75.8230869   0.0004151   228.013901   0.0114037   0.0125241   228.4802862   0.0113838   
05138   228.7786877   0.0113951   0.0125188   228.9763588   0.011375   113.9496825   75.966455   0.0004158   228.4260261   0.0114038   0.0125263   228.8959735   0.0113839   
05139   229.2018867   0.0113952   0.012521   229.4009252   0.0113751   114.1567314   76.1044876   0.0004164   228.8633603   0.0114038   0.0125285   229.3387424   0.0113839   
05140   229.5815612   0.0113954   0.0125232   229.7811631   0.0113754   114.3459979   76.2306653   0.000417   229.1440723   0.0114046   0.0125307   229.6306909   0.0113847   
05141   229.9680999   0.0113958   0.0125254   230.169822   0.0113757   114.5545502   76.3697002   0.0004177   229.5940715   0.0114046   0.012533   230.0747522   0.0113847   
05142   230.3440516   0.0113961   0.0125277   230.547415   0.0113761   114.7438149   76.4958766   0.0004183   229.9829187   0.0114049   0.0125352   230.4713368   0.011385   
05143   230.6665186   0.0113967   0.0125299   230.8718707   0.0113767   114.8909089   76.5939393   0.0004206   230.415337   0.0114049   0.0125374   230.9103555   0.011385   
05144   222.8759569   0.0114505   0.0125446   223.046672   0.0114304   110.9823187   73.9882125   0.0004083   222.5816071   0.0114591   0.0125522   223.0308922   0.0114391   
05145   223.3123134   0.0114505   0.0125467   223.4842563   0.0114305   111.2008432   74.1338955   0.000409   223.0173167   0.0114591   0.0125544   223.4684387   0.0114391   
05146   223.7468562   0.0114505   0.0125489   223.920059   0.0114305   111.4184884   74.2789922   0.0004097   223.4529192   0.0114591   0.0125566   223.9074053   0.0114391   
05147   224.1796279   0.0114506   0.0125511   224.3541872   0.0114305   111.6352808   74.4235206   0.0004104   223.8896032   0.0114591   0.0125588   224.3459905   0.0114391   
05148   224.609249   0.0114506   0.0125533   224.7852569   0.0114305   111.850564   74.5670427   0.000411   224.327106   0.0114591   0.012561   224.78568   0.0114391   
05149   225.0415596   0.0114507   0.0125555   225.2189177   0.0114306   112.0671277   74.7114184   0.0004117   224.7418552   0.0114592   0.0125632   225.2033216   0.0114392   
05150   225.478759   0.0114507   0.0125577   225.6573021   0.0114306   112.2860514   74.8573676   0.0004124   225.1773291   0.0114592   0.0125654   225.6406255   0.0114392   
05151   225.9056897   0.0114507   0.0125599   226.0856679   0.0114306   112.4999782   74.9999855   0.0004131   225.6091611   0.0114592   0.0125676   226.0629052   0.0114393   
05152   226.3428922   0.0114507   0.0125621   226.5240522   0.0114306   112.7189025   75.145935   0.0004138   226.0446413   0.0114592   0.0125697   226.5002095   0.0114393   
05153   226.743317   0.011451   0.0125644   226.9264379   0.0114309   112.9198622   75.2799081   0.0004144   226.495377   0.0114592   0.012572   226.9393277   0.0114393   
05154   227.1699018   0.011451   0.0125666   227.3544484   0.0114309   113.1335747   75.4223831   0.0004151   226.9338872   0.0114592   0.0125742   227.3786863   0.0114393   
05155   227.6050317   0.011451   0.0125688   227.7907994   0.011431   113.3514777   75.5676518   0.0004157   227.3699905   0.0114592   0.0125764   227.8166262   0.0114393   
05156   227.987806   0.0114514   0.012571   228.1758309   0.0114313   113.5437746   75.6958497   0.0004163   227.7365816   0.0114597   0.0125786   228.1809095   0.0114397   
05157   228.4250193   0.0114514   0.0125732   228.6142153   0.0114313   113.7626986   75.8417991   0.000417   228.1720749   0.0114597   0.0125808   228.6182136   0.0114397   
05158   228.8520297   0.0114514   0.0125754   229.0425611   0.0114314   113.9766454   75.9844303   0.0004177   228.5669248   0.0114599   0.012583   229.0144139   0.0114399   
05159   229.2881052   0.0114515   0.0125776   229.4798522   0.0114314   114.1950211   76.1300141   0.0004184   229.0027609   0.0114599   0.0125852   229.4520459   0.0114399   
05160   229.7136198   0.0114515   0.0125798   229.9068278   0.0114314   114.4082472   76.2721648   0.000419   229.4412381   0.0114599   0.0125874   229.8924494   0.0114399   
05161   230.1053155   0.0114518   0.0125821   230.3013366   0.0114317   114.6053533   76.4035689   0.0004197   229.8533936   0.0114601   0.0125896   230.3086321   0.0114401   
05162   230.5299042   0.0114519   0.0125843   230.7275246   0.0114318   114.8181378   76.5454252   0.0004203   230.2875105   0.0114601   0.0125918   230.7446455   0.0114401   
05163   230.8556047   0.0114526   0.0125866   231.055815   0.0114325   114.9827364   76.6551576   0.0004208   230.6763663   0.0114604   0.0125941   231.1396965   0.0114404   
05164   231.2522363   0.0114527   0.0125887   231.4541595   0.0114326   115.1855965   76.7903977   0.0004215   231.0589639   0.0114605   0.0125962   231.5298742   0.0114406   
05165   223.8590172   0.0115019   0.0126008   224.0224073   0.0114817   111.4900023   74.3266682   0.00041   223.5671867   0.0115113   0.0126093   224.0169796   0.0114912   
05166   224.2813086   0.0115019   0.012603   224.4463766   0.0114818   111.7016147   74.4677431   0.0004106   224.0071146   0.0115113   0.0126115   224.4587701   0.0114912   
05167   224.7106971   0.011502   0.0126052   224.8772024   0.0114819   111.9167151   74.6111434   0.0004113   224.4449197   0.0115113   0.0126137   224.8984028   0.0114912   
05168   225.1478974   0.011502   0.0126074   225.3155868   0.0114819   112.1356394   74.7570929   0.000412   224.8804089   0.0115113   0.0126159   225.3357069   0.0114912   
05169   225.5821367   0.011502   0.0126095   225.7510838   0.0114819   112.3531179   74.9020786   0.0004127   225.3168647   0.0115113   0.0126181   225.7737462   0.0114912   
05170   226.0092731   0.0115021   0.0126117   226.1798195   0.011482   112.5671981   75.0447987   0.0004133   225.7541069   0.0115113   0.0126203   226.2112533   0.0114912   
05171   226.4429716   0.0115021   0.0126139   226.6147697   0.011482   112.784433   75.189622   0.000414   226.1905102   0.0115113   0.0126225   226.6495735   0.0114912   
05172   226.8590074   0.0115022   0.0126162   227.0326269   0.0114821   112.9930423   75.3286949   0.0004147   226.5362972   0.0115117   0.0126247   227.0014014   0.0114917   
05173   227.2962166   0.0115022   0.0126184   227.4710113   0.0114821   113.2119662   75.4746441   0.0004153   226.9717963   0.0115117   0.0126269   227.4387054   0.0114917   
05174   227.7300491   0.0115023   0.0126205   227.9061066   0.0114821   113.4292635   75.619509   0.000416   227.3622189   0.011512   0.0126291   227.8307765   0.0114919   
05175   228.167261   0.0115023   0.0126227   228.3444909   0.0114821   113.6481877   75.7654585   0.0004167   227.7977213   0.011512   0.0126312   228.2680807   0.0114919   
05176   228.6013643   0.0115023   0.0126249   228.7798513   0.0114821   113.8655947   75.9103965   0.0004174   228.2152843   0.0115121   0.0126334   228.6900979   0.011492   
05177   229.0351959   0.0115023   0.0126271   229.2149498   0.0114822   114.0828622   76.0552415   0.0004181   228.6516698   0.0115121   0.0126356   229.1284171   0.011492   
05178   229.4622243   0.0115024   0.0126293   229.6433059   0.0114822   114.2967565   76.1978377   0.0004187   229.0904508   0.0115121   0.0126378   229.5684936   0.011492   
05179   229.8681948   0.0115026   0.0126316   230.0511328   0.0114824   114.5004062   76.3336041   0.0004194   229.5354548   0.0115121   0.01264   230.0151169   0.011492   
05180   230.2873944   0.0115027   0.0126338   230.4720323   0.0114825   114.7106247   76.4737498   0.00042   229.9759676   0.0115121   0.0126423   230.4576499   0.011492   
05181   230.6162062   0.0115033   0.0126361   230.8073228   0.0114832   114.8779243   76.5852829   0.0004206   230.3433438   0.0115123   0.0126443   230.8295317   0.0114923   
05182   231.0504086   0.0115033   0.0126383   231.2426725   0.0114832   115.0953604   76.7302402   0.0004212   230.7782563   0.0115123   0.0126465   231.2662944   0.0114923   
05183   231.4511943   0.0115036   0.0126405   231.6446325   0.0114834   115.2964635   76.864309   0.0004219   231.0861883   0.011513   0.0126488   231.576657   0.0114929   
05184   231.7535695   0.011504   0.0126425   231.9480007   0.0114839   115.448167   76.9654447   0.0004224   231.2385511   0.0115142   0.0126507   231.7284355   0.0114941   
05185   232.0671165   0.0115047   0.0126447   232.2640636   0.0114846   115.6032966   77.0688644   0.0004228   231.3675239   0.0115157   0.012653   231.8831215   0.0114957   
05186   232.0811775   0.0115064   0.0126465   232.2891191   0.0114862   115.5500258   77.0333505   0.0004233   231.6522752   0.0115157   0.0126544   232.1594731   0.0114957   
05187   232.4173881   0.011507   0.0126488   232.6269299   0.0114868   115.7188559   77.1459039   0.0004239   232.0071463   0.0115162   0.0126566   232.5074764   0.0114962   
05188   232.7309727   0.0115076   0.012651   232.9434736   0.0114875   115.5380964   77.0253976   0.0004298   232.4043987   0.0115165   0.0126589   232.9130561   0.0114965   
05189   224.1543761   0.0115658   0.0126662   224.3417895   0.0115457   111.2421668   74.1614445   0.0004163   224.0373479   0.0115738   0.0126744   224.5787451   0.0115538   
05190   224.5915888   0.0115658   0.0126684   224.7801738   0.0115457   111.4610907   74.3073938   0.000417   224.472863   0.0115738   0.0126766   225.0160491   0.0115538   
05191   225.0246687   0.0115659   0.0126706   225.2144358   0.0115457   111.6779787   74.4519858   0.0004177   224.9101043   0.0115738   0.0126788   225.4547348   0.0115538   
05192   225.4576232   0.0115659   0.0126728   225.6486741   0.0115457   111.8947108   74.5964739   0.0004184   225.3468965   0.0115738   0.012681   225.8932761   0.0115538   
05193   225.8850692   0.0115659   0.012675   226.0776619   0.0115458   112.1091669   74.7394446   0.0004191   225.7852298   0.0115738   0.0126832   226.3337999   0.0115538   
05194   226.3222882   0.0115659   0.0126772   226.5160463   0.0115458   112.328091   74.885394   0.0004197   226.2207503   0.0115738   0.0126854   226.7711042   0.0115538   
05195   226.7595084   0.0115659   0.0126794   226.9544306   0.0115458   112.547015   75.0313434   0.0004204   226.6562717   0.0115738   0.0126875   227.2084081   0.0115538   
05196   227.1947578   0.011566   0.0126816   227.3909039   0.0115458   112.7650415   75.1766943   0.0004211   227.0815276   0.0115739   0.0126897   227.6282776   0.0115538   
05197   227.6319806   0.011566   0.0126838   227.8292882   0.0115458   112.9839654   75.3226436   0.0004218   227.5170519   0.0115739   0.0126919   228.0655816   0.0115538   
05198   228.05771   0.011566   0.012686   228.2564484   0.0115459   113.1975984   75.4650656   0.0004225   227.9432356   0.011574   0.0126941   228.4933135   0.0115539   
05199   228.4949358   0.011566   0.0126882   228.6948327   0.0115459   113.4165227   75.6110151   0.0004232   228.3787635   0.011574   0.0126963   228.9306174   0.0115539   
05200   228.9229852   0.0115661   0.0126904   229.1241567   0.0115459   113.6310079   75.7540053   0.0004238   228.8173428   0.011574   0.0126985   229.3712137   0.0115539   
05201   229.3473681   0.0115662   0.0126926   229.5502538   0.011546   113.8437412   75.8958274   0.0004245   229.2553839   0.011574   0.0127007   229.81184   0.0115539   
05202   229.7845986   0.0115662   0.0126948   229.9886382   0.011546   114.062665   76.0417767   0.0004252   229.6909152   0.011574   0.0127029   230.2491439   0.0115539   
05203   230.2198317   0.0115662   0.012697   230.4250731   0.011546   114.2805588   76.1870392   0.0004259   230.1267769   0.011574   0.012705   230.6872809   0.0115539   
05204   230.6560897   0.0115662   0.0126992   230.8624997   0.011546   114.4990064   76.3326709   0.0004265   230.5626111   0.011574   0.0127072   231.1249526   0.0115539   
05205   231.0900419   0.0115662   0.0127013   231.2975894   0.011546   114.7162897   76.4775265   0.0004272   230.9990383   0.011574   0.0127094   231.5608485   0.0115539   
05206   231.5210987   0.0115662   0.0127035   231.7293021   0.0115461   114.9319395   76.621293   0.0004279   231.4231838   0.011574   0.0127116   231.9868488   0.0115539   
05207   231.9516714   0.0115663   0.0127057   232.1604032   0.0115461   115.147159   76.7647727   0.0004286   231.8582354   0.011574   0.0127138   232.4237138   0.0115539   
05208   232.3816966   0.0115663   0.0127079   232.5913842   0.0115461   115.3624337   76.9082891   0.0004292   232.2950595   0.011574   0.012716   232.862033   0.0115539   
05209   221.7036267   0.0116087   0.0126968   221.8906047   0.0115885   110.0188563   73.3459042   0.0004125   221.5432777   0.0116173   0.0127053   222.06392   0.0115971   
05210   222.1356707   0.0116088   0.012699   222.3238906   0.0115885   110.2352989   73.4901993   0.0004132   221.9800807   0.0116173   0.0127075   222.5027466   0.0115971   
05211   222.5721875   0.0116088   0.0127012   222.7615881   0.0115885   110.4538796   73.6359198   0.0004139   222.4157461   0.0116173   0.0127097   222.9403101   0.0115971   
05212   223.006478   0.0116088   0.0127034   223.1970592   0.0115885   110.671307   73.7808713   0.0004146   222.8540749   0.0116173   0.0127118   223.3797157   0.0115971   
05213   223.4398001   0.0116088   0.0127056   223.6316003   0.0115886   110.8882781   73.9255187   0.0004152   223.2906389   0.0116173   0.012714   223.8181282   0.0115971   
05214   223.8690956   0.0116089   0.0127078   224.062251   0.0115886   111.1032304   74.0688203   0.0004159   223.7311291   0.0116173   0.0127162   224.2593944   0.0115971   
05215   224.302856   0.0116089   0.01271   224.4972149   0.0115886   111.3204231   74.2136154   0.0004166   224.1691458   0.0116173   0.0127184   224.6990708   0.0115971   
05216   224.7377002   0.0116089   0.0127122   224.9333085   0.0115887   111.5382037   74.3588025   0.0004173   224.6052114   0.0116173   0.0127206   225.1369995   0.0115971   
05217   225.1729107   0.0116089   0.0127144   225.3696812   0.0115887   111.7560964   74.5040643   0.000418   225.0130877   0.0116174   0.0127228   225.5465368   0.0115973   
05218   225.6101307   0.0116089   0.0127166   225.8080655   0.0115887   111.9750207   74.6500138   0.0004186   225.4486045   0.0116174   0.012725   225.9838406   0.0115973   
05219   226.0428235   0.011609   0.0127187   226.2421204   0.0115887   112.1917814   74.7945209   0.0004193   225.8842168   0.0116174   0.0127272   226.4217497   0.0115973   
05220   226.4747586   0.011609   0.0127209   226.6752271   0.0115887   112.4081236   74.9387491   0.00042   226.3257644   0.0116174   0.0127294   226.8623167   0.0115973   
05221   226.9098308   0.011609   0.0127231   227.1114309   0.0115887   112.625947   75.0839647   0.0004207   226.7647372   0.0116174   0.0127316   227.2989084   0.0115973   
05222   227.3412323   0.011609   0.0127253   227.5447299   0.0115888   112.8422603   75.2281735   0.0004214   227.198425   0.0116174   0.0127337   227.7344376   0.0115973   
05223   227.7784589   0.011609   0.0127275   227.9831143   0.0115888   113.0611841   75.3741227   0.000422   227.6339482   0.0116174   0.0127359   228.1717419   0.0115973   
05224   228.2054369   0.0116091   0.0127297   228.4119332   0.0115888   113.2754508   75.5169672   0.0004227   228.0447525   0.0116176   0.0127381   228.581055   0.0115974   
05225   228.6426662   0.0116091   0.0127319   228.8503175   0.0115888   113.494375   75.6629167   0.0004234   228.480279   0.0116176   0.0127403   229.0183592   0.0115974   
05226   229.0764999   0.0116091   0.0127341   229.2853466   0.0115889   113.7115824   75.8077216   0.0004241   228.9169632   0.0116176   0.0127425   229.4568433   0.0115974   
05227   229.5137318   0.0116091   0.0127363   229.7237309   0.0115889   113.9305067   75.9536711   0.0004248   229.3524915   0.0116176   0.0127447   229.8941477   0.0115974   
05228   229.9509648   0.0116091   0.0127385   230.1621152   0.0115889   114.1494305   76.0996203   0.0004254   229.7880219   0.0116176   0.0127469   230.3314515   0.0115974   
05229   230.3873632   0.0116091   0.0127407   230.5997047   0.0115889   114.3679485   76.245299   0.0004261   230.2237009   0.0116176   0.012749   230.7689302   0.0115974   
05230   230.8237101   0.0116091   0.0127429   231.0371972   0.0115889   114.5864181   76.3909454   0.0004268   230.6595884   0.0116176   0.0127512   231.2066283   0.0115974   
05231   231.2603007   0.0116091   0.012745   231.4749114   0.0115889   114.8050201   76.53668   0.0004275   231.0945359   0.0116176   0.0127534   231.6433001   0.0115974   
05232   231.6832185   0.0116092   0.0127472   231.899256   0.0115889   115.0168022   76.6778682   0.0004282   231.5273395   0.0116176   0.0127556   232.0779803   0.0115974   
05233   232.1155554   0.0116092   0.0127494   232.3328434   0.0115889   115.2333079   76.8222052   0.0004288   231.9622309   0.0116176   0.0127577   232.5149546   0.0115974   
05234   232.5346355   0.0116093   0.0127516   232.7539568   0.0115891   115.4436454   76.9624302   0.0004295   232.3494246   0.0116178   0.0127599   232.9119018   0.0115976   
05235   232.9363119   0.0116095   0.0127539   233.156844   0.0115893   115.6453689   77.0969126   0.0004301   232.7704371   0.011618   0.0127622   233.3341911   0.0115978   
05236   222.9117836   0.011678   0.012772   223.0995719   0.0116577   110.6222025   73.748135   0.0004144   223.3038326   0.011684   0.0127805   223.7239953   0.0116638   
05237   223.3475326   0.011678   0.0127742   223.536528   0.0116577   110.8403952   73.8935968   0.0004151   223.7397668   0.011684   0.0127827   224.1617393   0.0116638   
05238   223.7799617   0.011678   0.0127764   223.9702907   0.0116577   111.0570111   74.0380074   0.0004158   224.1778777   0.011684   0.0127849   224.5989685   0.0116638   
05239   224.2162513   0.011678   0.0127786   224.4077864   0.0116577   111.27551   74.1836733   0.0004165   224.6135118   0.011684   0.0127871   225.0368209   0.0116638   
05240   224.6463245   0.0116781   0.0127808   224.8392739   0.0116578   111.4909665   74.327311   0.0004171   225.0511183   0.011684   0.0127893   225.4761816   0.0116638   
05241   225.0783328   0.0116781   0.012783   225.272576   0.0116578   111.7073388   74.4715592   0.0004178   225.4876245   0.011684   0.0127915   225.9143709   0.0116638   
05242   225.5090302   0.0116781   0.0127852   225.7046474   0.0116578   111.9230712   74.6153808   0.0004185   225.9248328   0.011684   0.0127937   226.3533136   0.0116638   
05243   225.9421297   0.0116782   0.0127874   226.1389984   0.0116579   112.1399975   74.7599984   0.0004192   226.3615515   0.011684   0.0127958   226.7918694   0.0116638   
05244   226.376152   0.0116782   0.0127896   226.5742328   0.0116579   112.3573846   74.904923   0.0004198   226.7980087   0.011684   0.012798   227.2301497   0.0116638   
05245   226.8109786   0.0116782   0.0127918   227.0103092   0.0116579   112.5751694   75.0501129   0.0004205   227.2341908   0.011684   0.0128002   227.6682002   0.0116638   
05246   227.2213743   0.0116784   0.012794   227.4226583   0.0116581   112.7811268   75.1874179   0.0004212   227.5504266   0.0116846   0.0128024   227.9894871   0.0116644   
05247   227.6575681   0.0116784   0.0127962   227.8600604   0.0116581   112.9995521   75.3330347   0.0004218   227.9862384   0.0116846   0.0128046   228.4270951   0.0116644   
05248   228.082865   0.0116784   0.0127984   228.2868117   0.0116581   113.212622   75.4750813   0.0004225   228.4251965   0.0116846   0.0128068   228.8680661   0.0116644   
05249   228.518662   0.0116785   0.0128006   228.7238055   0.0116581   113.4308483   75.6205655   0.0004232   228.861179   0.0116846   0.012809   229.305738   0.0116644   
05250   228.9512534   0.0116785   0.0128028   229.1576883   0.0116582   113.6474834   75.764989   0.0004239   229.2482861   0.0116849   0.0128112   229.7032935   0.0116646   
05251   229.3884802   0.0116785   0.012805   229.5960727   0.0116582   113.8664074   75.9109383   0.0004246   229.683807   0.0116849   0.0128134   230.1405976   0.0116646   
05252   229.8138176   0.0116786   0.0128072   230.0228294   0.0116583   114.0796219   76.0530812   0.0004252   230.0524339   0.0116852   0.0128156   230.5076306   0.011665   
05253   230.2473694   0.0116786   0.0128094   230.4575912   0.0116583   114.2967137   76.1978091   0.0004259   230.3848706   0.0116857   0.0128178   230.8547567   0.0116655   
05254   230.6806369   0.0116786   0.0128116   230.8920842   0.0116583   114.5136542   76.3424361   0.0004266   230.8219206   0.0116857   0.01282   231.2927719   0.0116655   
05255   231.1134177   0.0116786   0.0128138   231.3257347   0.0116583   114.7301985   76.486799   0.0004273   231.2585299   0.0116857   0.0128221   231.7309378   0.0116655   
05256   231.5387992   0.0116787   0.0128159   231.7519497   0.0116584   114.9430483   76.6286989   0.0004279   231.6910855   0.0116858   0.0128243   232.1536817   0.0116655   
05257   231.9660083   0.0116787   0.0128181   232.1804122   0.0116584   115.1569893   76.7713262   0.0004286   232.0391661   0.0116862   0.0128265   232.5144403   0.011666   
05258   232.3777372   0.0116789   0.0128203   232.5920784   0.0116586   115.362746   76.9084973   0.0004292   232.4776473   0.0116862   0.0128287   232.954727   0.011666   
05259   232.7774097   0.0116791   0.0128226   232.9936948   0.0116588   115.5634584   77.0423056   0.0004299   232.8786318   0.0116864   0.0128309   233.3628881   0.0116662   
05260   233.0812161   0.0116799   0.0128249   233.2998905   0.0116596   115.7163313   77.1442209   0.0004304   233.3033997   0.0116866   0.0128333   233.8033955   0.0116663   
05261   233.4452316   0.0116804   0.0128272   233.6652791   0.0116601   115.8988717   77.2659144   0.0004309   233.7344464   0.0116867   0.0128356   234.2294398   0.0116665   
05262   225.1864768   0.0117372   0.0128426   225.3783221   0.0117169   111.7592603   74.5061735   0.000418   225.2321229   0.0117448   0.0128511   225.7480372   0.0117245   
05263   225.6148126   0.0117373   0.0128448   225.8082099   0.0117169   111.973943   74.6492954   0.0004186   225.6703153   0.0117448   0.0128533   226.1879188   0.0117245   
05264   226.052028   0.0117373   0.012847   226.2465942   0.0117169   112.1928672   74.7952448   0.0004193   226.105829   0.0117448   0.0128555   226.6252227   0.0117245   
05265   226.4781958   0.0117373   0.0128492   226.6742196   0.011717   112.4064108   74.9376072   0.00042   226.5448861   0.0117448   0.0128577   227.065242   0.0117245   
05266   226.9145231   0.0117373   0.0128514   227.1117431   0.011717   112.6249051   75.0832701   0.0004207   226.980666   0.0117448   0.0128599   227.502811   0.0117245   
05267   227.3421682   0.0117374   0.0128536   227.5408324   0.011717   112.8391712   75.2261141   0.0004213   227.4190123   0.0117448   0.0128621   227.9430405   0.0117245   
05268   227.7651669   0.0117375   0.0128558   227.9651673   0.0117171   113.0511038   75.3674025   0.000422   227.718517   0.0117455   0.0128643   228.2444227   0.0117252   
05269   228.20239   0.0117375   0.012858   228.4035516   0.0117171   113.2700277   75.5133518   0.0004227   228.1540384   0.0117455   0.0128664   228.6817269   0.0117252   
05270   228.6093388   0.0117377   0.0128602   228.812132   0.0117173   113.4740614   75.6493743   0.0004233   228.598858   0.0117455   0.0128687   229.1281543   0.0117252   
05271   229.0465654   0.0117377   0.0128624   229.2505163   0.0117173   113.6929852   75.7953234   0.000424   229.0343817   0.0117455   0.0128709   229.5654586   0.0117252   
05272   229.4790979   0.0117377   0.0128646   229.6843114   0.0117174   113.9096122   75.9397415   0.0004247   229.4713077   0.0117455   0.012873   230.0042007   0.0117252   
05273   229.9083783   0.0117378   0.0128668   230.1149228   0.0117174   114.1246605   76.083107   0.0004254   229.9081255   0.0117455   0.0128752   230.4427845   0.0117252   
05274   230.3257743   0.0117379   0.012869   230.5338502   0.0117175   114.3338621   76.2225747   0.000426   230.3498252   0.0117455   0.0128774   230.8857378   0.0117252   
05275   230.6269373   0.0117388   0.0128714   230.8384762   0.0117184   114.4859654   76.3239769   0.0004265   230.7252666   0.011746   0.0128798   231.2559435   0.0117257   
05276   231.0631272   0.0117388   0.0128736   231.275823   0.0117184   114.7043683   76.4695789   0.0004272   231.1611119   0.011746   0.012882   231.6936046   0.0117257   
05277   231.4956455   0.0117388   0.0128758   231.7096169   0.0117184   114.9209993   76.6139996   0.0004279   231.5980741   0.011746   0.0128842   232.1322641   0.0117257   
05278   231.9285386   0.0117388   0.012878   232.1437512   0.0117185   115.137794   76.7585293   0.0004285   231.8591596   0.0117468   0.0128864   232.4246098   0.0117265   
05279   232.3560287   0.0117388   0.0128801   232.571226   0.0117185   115.3514722   76.9009814   0.0004292   232.288216   0.0117468   0.0128885   232.8536551   0.0117265   
05280   232.6625923   0.0117392   0.012882   232.8745421   0.0117188   115.5043105   77.0028737   0.0004297   232.6570267   0.0117469   0.0128905   233.2063723   0.0117267   
05281   233.0931337   0.0117392   0.0128842   233.3057821   0.0117189   115.7195698   77.1463799   0.0004304   233.0917903   0.0117469   0.0128927   233.6426985   0.0117267   
05282   233.4675454   0.0117393   0.0128862   233.6795734   0.011719   115.9055135   77.2703424   0.0004309   233.4726144   0.0117471   0.0128947   234.0141591   0.0117268   
05283   233.7131216   0.0117405   0.0128886   233.9273757   0.0117202   116.0300917   77.3533944   0.0004313   233.8557144   0.0117475   0.0128971   234.4178323   0.0117272   
05284   234.0502974   0.0117412   0.012891   234.2662591   0.0117208   116.1991516   77.4661011   0.0004319   234.3017523   0.0117477   0.0128994   234.8472663   0.0117274   
05285   234.3175048   0.0117421   0.0128933   234.5332417   0.0117218   116.3321156   77.5547437   0.0004323   234.2535171   0.0117503   0.0129018   234.7862561   0.01173   
05286   234.6801141   0.0117424   0.0128953   234.895502   0.011722   116.4764427   77.6509618   0.0004329   234.6822875   0.0117503   0.0129039   235.2125509   0.01173   
05287   227.5027729   0.0117918   0.0129088   227.6995613   0.0117714   112.9058347   75.2705565   0.0004217   227.6769293   0.0117996   0.012918   228.131994   0.0117792   
05288   227.9400107   0.0117918   0.012911   228.1379456   0.0117714   113.1247586   75.4165057   0.0004224   228.1124584   0.0117996   0.0129201   228.5692978   0.0117792   
05289   228.3772498   0.0117918   0.0129132   228.5763299   0.0117714   113.3436825   75.562455   0.000423   228.547988   0.0117996   0.0129223   229.0066017   0.0117792   
05290   228.81449   0.0117918   0.0129154   229.0147143   0.0117714   113.5626066   75.7084044   0.0004237   228.9835192   0.0117996   0.0129245   229.4439061   0.0117792   
05291   229.2515211   0.0117918   0.0129176   229.4527597   0.0117714   113.7813679   75.8542453   0.0004244   229.4189338   0.0117996   0.0129267   229.8810816   0.0117792   
05292   229.6839026   0.0117919   0.0129197   229.8862896   0.0117715   113.997881   75.9985873   0.0004251   229.8245651   0.0117997   0.0129289   230.2872897   0.0117794   
05293   230.1211465   0.0117919   0.0129219   230.3246739   0.0117715   114.216805   76.1445366   0.0004258   230.2600994   0.0117997   0.0129311   230.7245936   0.0117794   
05294   230.555565   0.0117919   0.0129241   230.7609137   0.0117715   114.4346833   76.2897889   0.0004265   230.6949115   0.0117997   0.0129332   231.161131   0.0117794   
05295   230.9891332   0.0117919   0.0129263   231.1957354   0.0117715   114.6517796   76.4345197   0.0004271   231.1319645   0.0117997   0.0129354   231.600343   0.0117794   
05296   231.4238207   0.0117919   0.0129285   231.6323234   0.0117715   114.8697672   76.5798448   0.0004278   231.5668806   0.0117997   0.0129376   232.0369652   0.0117794   
05297   231.8543082   0.011792   0.0129307   232.064089   0.0117715   115.0853962   76.7235975   0.0004285   232.0078347   0.0117997   0.0129398   232.4749483   0.0117794   
05298   232.2871205   0.011792   0.0129329   232.4982844   0.0117716   115.3022824   76.8681883   0.0004292   232.444656   0.0117997   0.012942   232.913923   0.0117794   
05299   232.7171584   0.011792   0.0129351   232.9294917   0.0117716   115.5176489   77.0117659   0.0004299   232.8819378   0.0117997   0.0129442   233.3531231   0.0117794   
05300   233.1431465   0.0117921   0.0129373   233.3568308   0.0117717   115.7310444   77.1540296   0.0004305   233.3206107   0.0117997   0.0129464   233.7937602   0.0117794   
05301   233.5712381   0.0117922   0.0129395   233.786161   0.0117718   115.9454472   77.2969648   0.0004312   233.7618491   0.0117997   0.0129486   234.2310721   0.0117794   
05302   234.0055867   0.0117922   0.0129417   234.221581   0.0117718   116.1628894   77.4419263   0.0004319   234.2006988   0.0117997   0.0129508   234.6675363   0.0117794   
05303   234.4277959   0.0117923   0.0129439   234.6450144   0.0117719   116.3744104   77.5829402   0.0004325   234.556833   0.0118001   0.012953   235.0333737   0.0117798   
05304   234.8332029   0.0117925   0.0129461   235.0521131   0.0117721   116.5392489   77.6928326   0.0004336   234.9019638   0.0118006   0.0129552   235.387289   0.0117803   
05305   227.1819183   0.0118435   0.0129588   227.4000392   0.011823   112.8959079   75.2639386   0.0004252   227.2301751   0.0118551   0.0129712   227.6729498   0.0118347   
05306   227.611444   0.0118436   0.012961   227.8306915   0.0118231   113.1109299   75.4072866   0.0004259   227.6693018   0.0118551   0.0129734   228.1145812   0.0118347   
05307   228.047417   0.0118436   0.0129632   228.2678502   0.0118231   113.3292582   75.5528388   0.0004265   228.1055231   0.0118551   0.0129756   228.5526785   0.0118347   
05308   228.4835539   0.0118436   0.0129654   228.7052499   0.0118231   113.5476824   75.6984549   0.0004272   228.5407589   0.0118551   0.0129777   228.9898203   0.0118347   
05309   228.8792642   0.0118439   0.0129676   229.1037335   0.0118234   113.7461106   75.8307404   0.0004278   228.9039678   0.0118556   0.0129801   229.3602299   0.0118353   
05310   229.3158495   0.0118439   0.0129698   229.5414788   0.0118234   113.964734   75.9764893   0.0004285   229.3398545   0.0118556   0.0129823   229.7977214   0.0118353   
05311   229.7369556   0.0118439   0.012972   229.9670153   0.0118234   114.1772515   76.1181677   0.0004292   229.77202   0.0118556   0.0129845   230.2316579   0.0118353   
05312   230.1704112   0.011844   0.0129742   230.402009   0.0118235   114.3945296   76.2630197   0.0004299   230.2081508   0.0118556   0.0129866   230.6695308   0.0118353   
05313   230.606713   0.011844   0.0129764   230.839508   0.0118235   114.6130399   76.4086932   0.0004306   230.6435932   0.0118556   0.0129888   231.1068497   0.0118353   
05314   231.0431808   0.011844   0.0129786   231.2771613   0.0118235   114.8316229   76.5544153   0.0004312   231.0790852   0.0118556   0.012991   231.5441805   0.0118353   
05315   231.4757947   0.011844   0.0129808   231.7108703   0.0118235   115.0482971   76.6988647   0.0004319   231.4762058   0.0118559   0.0129932   231.9456204   0.0118355   
05316   231.9031084   0.0118441   0.012983   232.1395589   0.0118236   115.2623361   76.8415574   0.0004326   231.9135172   0.0118559   0.0129954   232.3842916   0.0118355   
05317   232.3403492   0.0118441   0.0129852   232.5779432   0.0118236   115.4812603   76.9875069   0.0004333   232.3490448   0.0118559   0.0129976   232.8215957   0.0118355   
05318   232.7732466   0.0118441   0.0129874   233.0121275   0.0118236   115.6981942   77.1321294   0.000434   232.7843437   0.0118559   0.0129998   233.2588601   0.0118355   
05319   233.1931452   0.0118442   0.0129896   233.4340199   0.0118237   115.9086803   77.2724535   0.0004346   233.2180269   0.0118559   0.0130019   233.6948953   0.0118355   
05320   233.6222085   0.0118442   0.0129917   233.8633576   0.0118237   116.1229285   77.4152857   0.0004353   233.6548096   0.0118559   0.0130041   234.133295   0.0118355   
05321   234.0485432   0.0118443   0.0129939   234.2909909   0.0118238   116.3366511   77.5577674   0.000436   234.0545201   0.011856   0.0130063   234.5356196   0.0118356   
05322   234.4424442   0.0118445   0.0129962   234.6859555   0.011824   116.5338793   77.6892529   0.0004366   234.4988096   0.011856   0.0130085   234.9778688   0.0118356   
05323   234.8533236   0.0118446   0.0129983   235.096819   0.0118241   116.7390174   77.8260116   0.0004372   234.9337439   0.011856   0.0130107   235.4132359   0.0118356   
05324   227.0858383   0.0118575   0.0129722   227.3360166   0.0118369   112.8868282   75.2578855   0.0004254   227.401977   0.0118565   0.0129735   227.8945852   0.0118361   
05325   227.5202555   0.0118575   0.0129744   227.7717437   0.0118369   113.1043974   75.4029316   0.0004261   227.8343116   0.0118565   0.0129757   228.3290404   0.0118361   
05326   227.9530411   0.0118575   0.0129766   228.2057455   0.0118369   113.3210543   75.5473695   0.0004268   228.2651789   0.0118565   0.0129778   228.7617877   0.0118361   
05327   228.3896504   0.0118575   0.0129788   228.6435136   0.0118369   113.5396796   75.6931198   0.0004275   228.7000791   0.0118565   0.01298   229.1984742   0.0118361   
05328   228.781   0.0118575   0.0129808   229.0348034   0.0118369   113.735882   75.8239213   0.0004281   229.0972015   0.0118565   0.012982   229.5948198   0.0118361   
05329   229.2175077   0.0118575   0.0129829   229.472459   0.0118369   113.9544818   75.9696546   0.0004288   229.532368   0.0118565   0.0129842   230.0316978   0.0118361   
05330   229.6330068   0.0118575   0.0129851   229.8881461   0.011837   114.1618878   76.1079252   0.0004294   229.9359582   0.0118565   0.0129861   230.4071062   0.0118361   
05331   230.057816   0.0118575   0.0129872   230.3141151   0.011837   114.3745865   76.2497243   0.0004301   230.3586451   0.0118565   0.0129882   230.8315921   0.0118361   
05332   230.4853926   0.0118575   0.0129893   230.7410689   0.011837   114.5877964   76.3918643   0.0004307   230.7900293   0.0118565   0.0129904   231.2628728   0.0118361   
05333   230.9211652   0.0118575   0.0129915   231.1779763   0.011837   114.8059772   76.5373181   0.0004314   231.224694   0.0118565   0.0129926   231.699177   0.0118361   
05334   231.3427397   0.0118575   0.0129936   231.6005167   0.011837   115.0172805   76.678187   0.0004321   231.6485489   0.0118565   0.0129947   232.1238962   0.0118361   
05335   231.7671883   0.0118576   0.0129958   232.0244782   0.011837   115.2288561   76.8192374   0.0004327   232.077107   0.0118565   0.0129968   232.5471614   0.0118361   
05336   232.1478876   0.0118576   0.0129978   232.4024542   0.0118371   115.4176321   76.945088   0.0004333   232.4827436   0.0118566   0.0129989   232.9483796   0.0118362   
05337   232.5634323   0.0118577   0.0129998   232.818832   0.0118371   115.6254109   77.0836072   0.000434   232.90459   0.0118566   0.013001   233.3701977   0.0118362   
05338   232.9418779   0.0118577   0.0130017   233.195718   0.0118371   115.8132166   77.2088111   0.0004346   233.2735039   0.0118567   0.013003   233.730937   0.0118363   
05339   233.3635564   0.0118577   0.0130039   233.6184845   0.0118372   116.0247826   77.3498551   0.0004352   233.7101513   0.0118567   0.0130051   234.1642906   0.0118363   
05340   233.6370866   0.0118587   0.0130063   233.9018254   0.0118381   116.1664104   77.4442736   0.0004357   233.9101767   0.0118581   0.0130077   234.4310143   0.0118377   
05341   234.0657149   0.0118587   0.0130084   234.3318364   0.0118382   116.3861911   77.590794   0.0004364   234.3448189   0.0118581   0.0130099   234.8659831   0.0118377   
05342   234.472639   0.0118588   0.0130106   234.737594   0.0118383   116.5891464   77.7260976   0.000437   234.7771211   0.0118581   0.013012   235.2972868   0.0118377   
05343   234.5146771   0.011859   0.013011   234.7725154   0.0118385   116.6071587   77.7381058   0.0004371   234.9249666   0.0118581   0.0130127   235.4210773   0.0118377   
05344   226.5438614   0.0119141   0.013026   226.7713406   0.0118935   112.6105162   75.0736775   0.0004246   226.272128   0.0119173   0.0130285   226.7295642   0.0118968   
05345   226.9810703   0.0119141   0.0130282   227.209725   0.0118935   112.8294403   75.2196269   0.0004253   226.7076247   0.0119173   0.0130306   227.1668685   0.0118968   
05346   227.4166148   0.0119141   0.0130304   227.6465017   0.0118935   113.0475589   75.3650392   0.000426   227.1435893   0.0119173   0.0130328   227.6046844   0.0118968   
05347   227.8433437   0.0119141   0.0130326   228.0748011   0.0118935   113.2614409   75.5076273   0.0004266   227.5822057   0.0119173   0.013035   228.044953   0.0118968   
05348   228.2740668   0.0119142   0.0130348   228.5069194   0.0118936   113.4772382   75.6514921   0.0004273   228.0181024   0.0119173   0.0130372   228.4786233   0.0118968   
05349   228.7040921   0.0119142   0.013037   228.9383054   0.0118936   113.6926453   75.7950968   0.000428   228.4168044   0.0119175   0.0130394   228.8831667   0.011897   
05350   229.1349459   0.0119143   0.0130392   229.3704798   0.0118937   113.9084603   75.9389735   0.0004287   228.8540692   0.0119175   0.0130416   229.3224412   0.011897   
05351   229.570348   0.0119143   0.0130414   229.8071302   0.0118937   114.1265178   76.0843452   0.0004294   229.2900642   0.0119175   0.0130438   229.7602696   0.011897   
05352   230.0037718   0.0119143   0.0130436   230.2417591   0.0118937   114.3435472   76.2290314   0.00043   229.7267872   0.0119175   0.013046   230.1986796   0.011897   
05353   230.4364609   0.0119143   0.0130458   230.6757699   0.0118937   114.5602832   76.3735221   0.0004307   230.1641107   0.0119175   0.0130482   230.6365277   0.011897   
05354   230.8617752   0.0119144   0.013048   231.1025408   0.0118938   114.7734437   76.5156292   0.0004314   230.60329   0.0119175   0.0130504   231.0771757   0.011897   
05355   231.1766914   0.0119152   0.0130504   231.421174   0.0118946   114.9325562   76.6217041   0.0004319   230.75515   0.011919   0.0130527   231.2448438   0.0118986   
05356   231.5970693   0.0119153   0.0130526   231.8431262   0.0118947   115.1432928   76.7621952   0.0004325   231.1948972   0.011919   0.0130549   231.6876417   0.0118986   
05357   231.9953368   0.0119155   0.0130548   232.2434508   0.0118949   115.3431666   76.8954444   0.0004332   231.6452686   0.011919   0.0130572   232.1271313   0.0118986   
05358   232.4325724   0.0119155   0.013057   232.6818351   0.0118949   115.5620907   77.0413938   0.0004338   232.0807963   0.011919   0.0130593   232.5644355   0.0118986   
05359   232.8177092   0.0119159   0.0130593   233.0690905   0.0118953   115.7554909   77.1703273   0.0004345   232.5329477   0.0119191   0.0130616   233.0019846   0.0118986   
05360   233.2494112   0.0119159   0.0130615   233.5018692   0.0118953   115.971639   77.314426   0.0004351   232.9693987   0.0119191   0.0130638   233.4399967   0.0118986   
05361   233.6827556   0.0119159   0.0130637   233.9364257   0.0118953   116.1886544   77.4591029   0.0004358   233.4061172   0.0119191   0.013066   233.8784551   0.0118986   
05362   234.0956894   0.0119161   0.0130659   234.3509198   0.0118955   116.39563   77.5970866   0.0004365   233.8488189   0.0119191   0.0130682   234.3231603   0.0118986   
05363   234.4239936   0.0119161   0.0130676   234.675079   0.0118955   116.5569997   77.7046664   0.000437   234.2116202   0.0119191   0.01307   234.6763365   0.0118986   
05364   234.6643846   0.0119165   0.0130691   234.9122561   0.0118959   116.6765916   77.7843944   0.0004373   234.5126601   0.0119193   0.0130717   234.9799768   0.0118988   
05365   234.9900185   0.0119171   0.0130714   235.2445035   0.0118965   116.8396324   77.8930883   0.0004379   234.8995388   0.0119196   0.0130741   235.3798284   0.0118992   
05366   235.3968687   0.0119173   0.0130736   235.6520375   0.0118966   117.0431128   78.0287419   0.0004385   235.3390648   0.0119196   0.0130763   235.822508   0.0118992   
05367   235.4888765   0.011919   0.0130758   235.7536783   0.0118984   117.0951481   78.063432   0.0004387   235.483791   0.011921   0.0130784   236.0093649   0.0119005   
05368   235.7843189   0.0119197   0.013078   236.0512915   0.0118991   117.2315257   78.1543505   0.0004391   235.6374284   0.0119223   0.0130805   236.169853   0.0119018   
05369   235.8365881   0.0119221   0.0130806   236.1010097   0.0119015   117.2724386   78.1816257   0.0004393   236.1179932   0.0119225   0.0130831   236.6444475   0.0119021   
05370   226.6910441   0.0119847   0.0130975   226.93628   0.0119641   112.6945151   75.1296767   0.000425   226.8478556   0.011986   0.0131001   227.3020093   0.0119655   
05371   227.1282866   0.0119847   0.0130996   227.3746643   0.0119641   112.913439   75.275626   0.0004257   227.2833986   0.011986   0.0131023   227.7393133   0.0119655   
05372   227.5655302   0.0119847   0.0131018   227.8130487   0.0119641   113.1323631   75.4215754   0.0004263   227.7189425   0.011986   0.0131045   228.1766175   0.0119655   
05373   227.9985001   0.0119847   0.013104   228.2472768   0.0119641   113.3491446   75.5660964   0.000427   228.1556609   0.011986   0.0131067   228.6152729   0.0119655   
05374   228.4314302   0.0119848   0.0131062   228.6814362   0.0119641   113.5660246   75.7106831   0.0004277   228.52562   0.0119864   0.0131089   228.9942275   0.0119659   
05375   228.8676727   0.0119848   0.0131084   229.1188516   0.0119641   113.7844683   75.8563122   0.0004284   228.9615581   0.0119864   0.013111   229.4316106   0.0119659   
05376   229.3044411   0.0119848   0.0131106   229.5567799   0.0119641   114.0031688   76.0021125   0.0004291   229.3972015   0.0119864   0.0131132   229.869064   0.0119659   
05377   229.741691   0.0119848   0.0131128   229.9951642   0.0119641   114.222093   76.148062   0.0004297   229.8327517   0.0119864   0.0131154   230.3063684   0.0119659   
05378   230.1789419   0.0119848   0.013115   230.4335486   0.0119641   114.4410171   76.2940114   0.0004304   230.2683025   0.0119864   0.0131176   230.7436724   0.0119659   
05379   230.6100686   0.0119848   0.0131172   230.8658697   0.0119642   114.6568901   76.4379267   0.0004311   230.7060917   0.0119864   0.0131198   231.1823855   0.0119659   
05380   231.0473218   0.0119848   0.0131194   231.3042539   0.0119642   114.8758143   76.5838762   0.0004318   231.1416447   0.0119864   0.013122   231.6196896   0.0119659   
05381   231.4838763   0.0119848   0.0131216   231.7419592   0.0119642   115.0943881   76.7295921   0.0004325   231.5774165   0.0119864   0.0131241   232.0571976   0.0119659   
05382   231.9170639   0.0119848   0.0131238   232.1763488   0.0119642   115.3113808   76.8742538   0.0004332   232.014812   0.0119864   0.0131263   232.4947304   0.0119659   
05383   232.3514279   0.0119849   0.0131259   232.6119046   0.0119642   115.5289308   77.0192872   0.0004338   232.4514149   0.0119864   0.0131285   232.9325662   0.0119659   
05384   232.7886858   0.0119849   0.0131281   233.050289   0.0119642   115.7478548   77.1652365   0.0004345   232.8869725   0.0119864   0.0131307   233.3698702   0.0119659   
05385   233.2221551   0.0119849   0.0131303   233.4849241   0.0119642   115.9649101   77.3099401   0.0004352   233.3265095   0.0119864   0.0131329   233.8046622   0.0119659   
05386   233.6594153   0.0119849   0.0131325   233.9233084   0.0119642   116.1838342   77.4558894   0.0004359   233.7620685   0.0119864   0.0131351   234.2419661   0.0119659   
05387   234.0959401   0.0119849   0.0131347   234.3609654   0.0119642   116.4024071   77.6016047   0.0004366   234.1978577   0.0119864   0.0131373   234.6794912   0.0119659   
05388   234.5332024   0.0119849   0.0131369   234.7993498   0.0119642   116.621331   77.747554   0.0004373   234.6334186   0.0119864   0.0131394   235.1167953   0.0119659   
05389   234.9635527   0.0119849   0.0131391   235.2309502   0.0119643   116.8368128   77.8912085   0.0004379   235.071142   0.0119864   0.0131416   235.5561406   0.0119659   
05390   235.4008174   0.0119849   0.0131413   235.6693346   0.0119643   117.0557368   78.0371579   0.0004386   235.5067049   0.0119864   0.0131438   235.9934449   0.0119659   
05391   235.8216671   0.011985   0.0131434   236.0913234   0.0119643   117.2665678   78.1777119   0.0004393   235.9335181   0.0119864   0.013146   236.423576   0.0119659   
05392   236.2307813   0.0119852   0.0131457   236.5021202   0.0119645   117.4717262   78.3144842   0.0004399   236.3769865   0.0119864   0.0131482   236.86859   0.0119659   
05393   236.1577252   0.0119883   0.0131485   236.4269001   0.0119677   117.4343544   78.2895696   0.0004398   236.7953597   0.0119871   0.013151   237.2930625   0.0119666   
05394   236.5759965   0.0119885   0.0131507   236.8464259   0.0119678   117.6438426   78.4292284   0.0004405   237.051799   0.011988   0.0131532   237.5738584   0.0119675   
05395   236.9135661   0.0119889   0.0131529   237.185517   0.0119683   117.8131154   78.5420769   0.000441   237.3607024   0.0119886   0.0131554   237.9038341   0.0119681   
05396   237.2679179   0.0119893   0.013155   237.5392343   0.0119687   118.0224215   78.6816143   0.0004465   237.6902669   0.011989   0.0131575   238.2466051   0.0119685   
05397   224.2395697   0.0119903   0.0130908   224.4874376   0.0119696   111.5057529   74.3371686   0.0004261   224.8431168   0.011989   0.0130932   225.3704598   0.0119685   
05398   224.6743432   0.0119903   0.0130929   224.9232451   0.0119696   111.7233441   74.4822294   0.0004268   225.2766967   0.011989   0.0130954   225.8055853   0.0119685   
05399   225.1115871   0.0119903   0.0130951   225.3616295   0.0119696   111.9422682   74.6281788   0.0004275   225.7122393   0.011989   0.0130976   226.2428893   0.0119685   
05400   225.5488322   0.0119903   0.0130973   225.8000139   0.0119696   112.1611924   74.7741282   0.0004282   226.1477832   0.011989   0.0130997   226.6801935   0.0119685   
05401   225.9750628   0.0119903   0.0130995   226.2266644   0.0119696   112.3744553   74.9163035   0.0004288   226.5749136   0.011989   0.0131019   227.1078192   0.0119685   
05402   226.4123101   0.0119903   0.0131016   226.6650487   0.0119696   112.5933793   75.0622529   0.0004295   227.0104595   0.011989   0.0131041   227.5451232   0.0119685   
05403   226.8490488   0.0119903   0.0131038   227.102912   0.0119696   112.8120511   75.2080341   0.0004302   227.4454943   0.011989   0.0131062   227.9818906   0.0119685   
05404   227.2826105   0.0119903   0.013106   227.5375893   0.0119696   113.029152   75.352768   0.0004309   227.8773656   0.011989   0.0131084   228.4154795   0.0119685   
05405   227.7154438   0.0119903   0.0131082   227.9714999   0.0119696   113.2458785   75.4972523   0.0004316   228.3087488   0.011989   0.0131106   228.8484762   0.0119685   
05406   228.1457192   0.0119903   0.0131103   228.4028546   0.0119696   113.4613629   75.6409086   0.0004322   228.7372635   0.011989   0.0131127   229.2786295   0.0119685   
05407   228.5590425   0.0119903   0.0131124   228.8168149   0.0119696   113.6682395   75.7788263   0.0004329   229.1498011   0.011989   0.0131148   229.6918724   0.0119685   
05408   228.9962964   0.0119903   0.0131146   229.2551992   0.0119696   113.8871636   75.9247757   0.0004336   229.5853536   0.011989   0.013117   230.1291767   0.0119685   
05409   229.4283422   0.0119903   0.0131167   229.6883998   0.0119696   114.1034898   76.0689932   0.0004342   230.0155955   0.011989   0.0131191   230.5612128   0.0119685   
05410   229.8574824   0.0119903   0.0131189   230.1184161   0.0119696   114.3181634   76.2121089   0.0004349   230.4439898   0.011989   0.0131213   230.9908886   0.0119685   
05411   230.2877943   0.0119903   0.0131211   230.5494347   0.0119696   114.5334033   76.3556022   0.0004356   230.8730264   0.011989   0.0131234   231.4213721   0.0119685   
05412   230.7229164   0.0119903   0.0131232   230.9856818   0.0119696   114.7512621   76.5008414   0.0004363   231.3064028   0.011989   0.0131256   231.8564933   0.0119685   
05413   231.1541262   0.0119903   0.0131254   231.4178441   0.0119696   114.9671657   76.6447771   0.000437   231.7372685   0.011989   0.0131277   232.2887928   0.0119685   
05414   231.57286   0.0119903   0.0131275   231.8381519   0.0119696   115.1770845   76.784723   0.0004376   232.1521909   0.011989   0.0131298   232.7063997   0.0119685   
05415   232.0049433   0.0119903   0.0131297   232.2712689   0.0119696   115.3934624   76.9289749   0.0004383   232.5840012   0.011989   0.013132   233.1397142   0.0119685   
05416   232.4279496   0.0119903   0.0131318   232.6952843   0.0119697   115.6052189   77.0701459   0.0004389   233.0075569   0.011989   0.0131341   233.5646693   0.0119685   
05417   232.864553   0.0119903   0.013134   233.1330111   0.0119697   115.8238188   77.2158792   0.0004396   233.4424591   0.011989   0.0131363   234.0013198   0.0119685   
05418   233.2493561   0.0119903   0.0131359   233.5154235   0.0119697   116.0150343   77.3433562   0.0004402   233.8380406   0.011989   0.0131383   234.3925428   0.0119685   
05419   233.6434248   0.0119905   0.0131381   233.911398   0.0119698   116.212752   77.475168   0.0004409   234.2680307   0.011989   0.0131404   234.8243404   0.0119685   
05420   234.0328114   0.0119905   0.01314   234.3017036   0.0119699   116.4071344   77.6047563   0.0004415   234.663484   0.011989   0.0131424   235.2203039   0.0119685   
05421   234.4652053   0.0119905   0.0131422   234.7352937   0.0119699   116.6236309   77.7490873   0.0004421   235.0952085   0.011989   0.0131446   235.653966   0.0119685   
05422   234.8209248   0.0119906   0.0131441   235.0877113   0.01197   116.7997124   77.8664749   0.0004427   235.4816808   0.011989   0.0131465   236.0347724   0.0119685   
05423   235.2250423   0.0119907   0.0131462   235.4929645   0.01197   117.0020203   78.0013468   0.0004433   235.8945615   0.011989   0.0131485   236.4499209   0.0119685   
05424   235.6528563   0.0119907   0.0131483   235.9215084   0.01197   117.2159192   78.1439461   0.000444   236.3240564   0.011989   0.0131507   236.880893   0.0119685   
05425   235.753333   0.0119928   0.013151   236.0221359   0.0119722   117.2658891   78.1772594   0.0004441   236.8549362   0.011989   0.0131534   237.4151435   0.0119685   
05426   236.1797228   0.0119929   0.0131531   236.4496568   0.0119722   117.5864638   78.3909759   0.0004453   237.2810523   0.011989   0.0131555   237.8430332   0.0119685   
05427   229.1436826   0.0120416   0.0131667   229.3917669   0.012021   114.082308   76.054872   0.0004351   230.3410143   0.0120376   0.0131693   230.8856896   0.0120171   
05428   229.5809428   0.0120416   0.0131688   229.8301512   0.012021   114.3012322   76.2008215   0.0004358   230.7765693   0.0120376   0.0131715   231.3229936   0.0120171   
05429   230.018204   0.0120416   0.013171   230.2685355   0.012021   114.5201561   76.3467707   0.0004365   231.2121252   0.0120376   0.0131737   231.7602974   0.0120171   
05430   230.4554662   0.0120416   0.0131732   230.7069199   0.012021   114.7390797   76.4927198   0.0004372   231.6476823   0.0120376   0.0131759   232.1976018   0.0120171   
05431   230.8920424   0.0120417   0.0131754   231.1446184   0.012021   114.9576416   76.6384277   0.0004378   232.0836479   0.0120376   0.0131781   232.6353292   0.0120171   
05432   231.3293068   0.0120417   0.0131776   231.5830028   0.012021   115.1765654   76.7843769   0.0004385   232.5192072   0.0120376   0.0131802   233.0726334   0.0120171   
05433   231.7665723   0.0120417   0.0131798   232.0213871   0.012021   115.3954894   76.9303263   0.0004392   232.9547678   0.0120376   0.0131824   233.5099374   0.0120171   
05434   232.2019342   0.0120417   0.013182   232.4581035   0.012021   115.6135708   77.0757139   0.0004399   233.3897942   0.0120376   0.0131846   233.9468808   0.0120171   
05435   232.6392019   0.0120417   0.0131842   232.8964879   0.012021   115.8324949   77.2216633   0.0004406   233.8253568   0.0120376   0.0131868   234.3841852   0.0120171   
05436   233.0764705   0.0120417   0.0131864   233.3348722   0.012021   116.051419   77.3676127   0.0004413   234.2609207   0.0120376   0.013189   234.8214893   0.0120171   
05437   233.5137402   0.0120417   0.0131886   233.7732566   0.012021   116.2703428   77.5135618   0.000442   234.6964851   0.0120376   0.0131911   235.2587932   0.0120171   
05438   233.9489386   0.0120417   0.0131907   234.2095817   0.012021   116.4882142   77.6588095   0.0004426   235.1328742   0.0120376   0.0131933   235.6969816   0.0120171   
05439   234.3810529   0.0120417   0.0131929   234.6432518   0.012021   116.7045866   77.8030578   0.0004433   235.5673832   0.0120376   0.0131955   236.1336403   0.0120171   
05440   234.8174671   0.0120417   0.0131951   235.08077   0.012021   116.9230511   77.9487007   0.000444   236.0032934   0.0120376   0.0131977   236.571423   0.0120171   
05441   235.2547412   0.0120417   0.0131973   235.5191543   0.012021   117.141975   78.09465   0.0004447   236.438862   0.0120376   0.0131999   237.0087272   0.0120171   
05442   235.6845944   0.0120417   0.0131995   235.9500394   0.0120211   117.357161   78.2381073   0.0004454   236.870819   0.0120376   0.013202   237.4422463   0.0120171   
05443   236.1141297   0.0120418   0.0132017   236.3809532   0.0120211   117.5721147   78.3814098   0.000446   237.259053   0.0120378   0.0132042   237.8359351   0.0120173   
05444   236.5341602   0.0120419   0.0132039   236.8020416   0.0120212   117.7828365   78.521891   0.0004467   237.70138   0.0120378   0.0132064   238.2805358   0.0120173   
05445   226.9753435   0.0121073   0.0132214   227.2134552   0.0120866   112.9932887   75.3288592   0.0004317   228.4081017   0.0121021   0.0132241   228.9248295   0.0120816   
05446   227.4125895   0.0121073   0.0132236   227.6518396   0.0120866   113.2122124   75.4748082   0.0004324   228.8436415   0.0121021   0.0132262   229.3621332   0.0120816   
05447   227.8498367   0.0121073   0.0132258   228.0902239   0.0120866   113.4311364   75.6207576   0.0004331   229.2791823   0.0121021   0.0132284   229.7994374   0.0120816   
05448   228.2764039   0.0121073   0.013228   228.5182187   0.0120866   113.6448295   75.7632197   0.0004337   229.7181616   0.0121021   0.0132306   230.2394862   0.0120816   
05449   228.7107728   0.0121074   0.0132302   228.9538002   0.0120867   113.8624169   75.9082779   0.0004344   230.154587   0.0121021   0.0132328   230.6776313   0.0120816   
05450   229.148024   0.0121074   0.0132323   229.3921845   0.0120867   114.0813408   76.0542272   0.0004351   230.5901313   0.0121021   0.013235   231.1149353   0.0120816   
05451   229.5852764   0.0121074   0.0132345   229.8305688   0.0120867   114.3002646   76.2001764   0.0004358   231.0256766   0.0121021   0.0132372   231.5522395   0.0120816   
05452   230.0225298   0.0121074   0.0132367   230.2689531   0.0120867   114.5191888   76.3461259   0.0004365   231.4612231   0.0121021   0.0132394   231.9895435   0.0120816   
05453   230.4588465   0.0121074   0.0132389   230.7064332   0.0120867   114.7376842   76.4917895   0.0004372   231.8970438   0.0121021   0.0132415   232.4271278   0.0120816   
05454   230.8961022   0.0121074   0.0132411   231.1448175   0.0120867   114.9566082   76.6377388   0.0004378   232.3325923   0.0121021   0.0132437   232.8644321   0.0120816   
05455   231.3326202   0.0121074   0.0132433   231.5824829   0.0120867   115.1751939   76.7834626   0.0004385   232.7683754   0.0121021   0.0132459   233.3019487   0.0120816   
05456   231.7655958   0.0121074   0.0132455   232.0166813   0.0120867   115.3920167   76.9280111   0.0004392   233.2052434   0.0121021   0.0132481   233.7405126   0.0120816   
05457   232.2028549   0.0121074   0.0132477   232.4550657   0.0120867   115.6109405   77.0739603   0.0004399   233.6407953   0.0121021   0.0132503   234.1778167   0.0120816   
05458   232.6383147   0.0121074   0.0132499   232.8916826   0.0120867   115.8289793   77.2193196   0.0004406   234.076909   0.0121021   0.0132525   234.6156439   0.0120816   
05459   233.0682117   0.0121075   0.0132521   233.3228095   0.0120868   116.044332   77.362888   0.0004412   234.5147166   0.0121021   0.0132547   235.0551072   0.0120816   
05460   233.5041973   0.0121075   0.0132543   233.7599428   0.0120868   116.2626319   77.5084213   0.0004419   234.9507185   0.0121021   0.0132568   235.4926481   0.0120816   
05461   233.9406569   0.0121075   0.0132564   234.197556   0.0120868   116.4811675   77.6541117   0.0004426   235.3865174   0.0121021   0.013259   235.9301837   0.0120816   
05462   234.3750303   0.0121075   0.0132586   234.6330812   0.0120868   116.6987345   77.7991564   0.0004433   235.822961   0.0121021   0.0132612   236.3683456   0.0120816   
05463   234.8122962   0.0121075   0.0132608   235.0714655   0.0120868   116.9176589   77.945106   0.000444   236.2585193   0.0121021   0.0132634   236.8056494   0.0120816   
05464   235.2475956   0.0121075   0.013263   235.5079404   0.0120868   117.1356168   78.0904112   0.0004447   236.6946802   0.0121021   0.0132656   237.2435286   0.0120816   
05465   235.6848637   0.0121075   0.0132652   235.9463248   0.0120868   117.3545406   78.2363604   0.0004454   237.1302407   0.0121021   0.0132678   237.6808324   0.0120816   
05466   236.1142952   0.0121076   0.0132674   236.3770837   0.0120868   117.5695237   78.3796825   0.000446   237.5677747   0.0121021   0.0132699   238.1195079   0.0120816   
05467   236.5102663   0.0121078   0.0132696   236.7743163   0.0120871   117.7674468   78.5116312   0.0004466   238.0099274   0.0121021   0.0132722   238.5611359   0.0120816   
05468   236.923112   0.0121079   0.0132718   237.1888294   0.0120872   117.9743514   78.6495676   0.0004473   238.2034913   0.0121033   0.0132744   238.7690911   0.0120828   
05469   237.1162041   0.0121095   0.0132744   237.3826491   0.0120888   118.0712069   78.7141379   0.0004476   237.6113042   0.0121088   0.0132769   238.1987872   0.0120882   
05470   237.5001001   0.0121098   0.0132766   237.7676426   0.0120891   118.263353   78.8422353   0.0004482   238.0620521   0.0121088   0.0132792   238.6489087   0.0120882   
05471   237.7293514   0.0121107   0.0132786   237.9999482   0.01209   118.7996585   79.1997723   0.0004539   238.3451496   0.0121094   0.0132812   238.9504109   0.0120888   
05472   238.1079952   0.012111   0.0132809   238.3800313   0.0120903   119.012406   79.341604   0.0004545   238.5716811   0.0121105   0.0132835   239.1740818   0.0120899   
05473   238.3505086   0.0121121   0.0132831   238.6243755   0.0120914   119.1187531   79.412502   0.000455   238.2771935   0.0121142   0.0132857   238.8756167   0.0120936   
05474   238.4629583   0.012114   0.0132856   238.7383857   0.0120933   119.1765356   79.4510237   0.0004552   238.6763968   0.0121147   0.0132881   239.262881   0.0120941   
05475   228.3439725   0.012183   0.0133039   228.5833426   0.0121623   114.1046512   76.0697675   0.0004393   228.254681   0.0121855   0.0133066   228.792932   0.0121648   
05476   228.7628051   0.0121831   0.0133061   229.0039694   0.0121624   114.3147174   76.2098116   0.00044   228.7012252   0.0121855   0.0133088   229.2237336   0.0121648   
05477   229.1991281   0.0121831   0.0133083   229.44148   0.0121624   114.5332135   76.3554757   0.0004407   229.1369915   0.0121855   0.013311   229.661348   0.0121648   
05478   229.6288732   0.0121832   0.0133105   229.8726283   0.0121624   114.7485203   76.4990135   0.0004414   229.5746434   0.0121855   0.0133132   230.1009565   0.0121648   
05479   230.0242713   0.0121835   0.0133128   230.2701596   0.0121627   114.9468722   76.6312481   0.000442   230.0207755   0.0121855   0.0133154   230.5527308   0.0121648   
05480   230.4561001   0.0121835   0.013315   230.7032622   0.0121627   115.1631888   76.7754592   0.0004427   230.4578532   0.0121855   0.0133176   230.9917691   0.0121648   
05481   230.8917885   0.0121835   0.0133172   231.1401244   0.0121627   115.381366   76.9209107   0.0004433   230.8950663   0.0121855   0.0133198   231.4273686   0.0121648   
05482   231.3264995   0.0121835   0.0133193   231.5760721   0.0121628   115.5990722   77.0660482   0.000444   231.331362   0.0121855   0.013322   231.865386   0.0121648   
05483   231.762102   0.0121835   0.0133215   232.0128246   0.0121628   115.8171704   77.2114469   0.0004447   231.7674157   0.0121855   0.0133242   232.3031859   0.0121648   
05484   232.1967308   0.0121835   0.0133237   232.448705   0.0121628   116.0348436   77.3565624   0.0004454   232.2037238   0.0121855   0.0133264   232.7412431   0.0121648   
05485   232.633988   0.0121835   0.0133259   232.8870894   0.0121628   116.2537676   77.5025117   0.0004461   232.6392711   0.0121855   0.0133285   233.1785471   0.0121648   
05486   233.0706092   0.0121835   0.0133281   233.324861   0.0121628   116.4723916   77.6482611   0.0004468   233.0747318   0.0121855   0.0133307   233.6165386   0.0121648   
05487   233.500717   0.0121836   0.0133303   233.756303   0.0121628   116.6879028   77.7919352   0.0004474   233.5123169   0.0121855   0.0133329   234.0560874   0.0121648   
05488   233.9247398   0.0121837   0.0133325   234.1817167   0.0121629   116.900361   77.933574   0.0004481   233.951876   0.0121855   0.0133351   234.4973958   0.0121648   
05489   234.3525633   0.0121837   0.0133347   234.6108559   0.012163   117.1147351   78.0764901   0.0004488   234.3061715   0.0121859   0.0133373   234.8517111   0.0121652   
05490   234.7356383   0.0121841   0.013337   234.9964982   0.0121633   117.3073292   78.2048862   0.0004494   234.6714754   0.0121863   0.0133396   235.2330466   0.0121656   
05491   235.0653807   0.0121848   0.0133393   235.3287719   0.012164   117.4731969   78.3154646   0.0004499   235.0008791   0.012187   0.0133419   235.5526679   0.0121664   
05492   235.4996846   0.0121848   0.0133415   235.7642051   0.012164   117.6906863   78.4604575   0.0004506   235.4373289   0.012187   0.0133441   235.9908914   0.0121664   
05493   235.9247132   0.0121849   0.0133437   236.1905084   0.0121641   117.9035557   78.6023705   0.0004512   235.7402413   0.0121876   0.0133463   236.3071714   0.012167   
05494   236.3517668   0.0121849   0.0133459   236.6188138   0.0121642   118.1174513   78.7449675   0.0004519   236.1789199   0.0121876   0.0133485   236.7475967   0.012167   
05495   236.7845479   0.012185   0.0133481   237.0527056   0.0121642   118.3341757   78.8894505   0.0004526   236.6158997   0.0121876   0.0133507   237.1852161   0.012167   
05496   237.205146   0.0121851   0.0133504   237.4746461   0.0121643   118.5448681   79.0299121   0.0004532   237.0564824   0.0121876   0.0133529   237.6275259   0.012167   
05497   237.6361488   0.0121851   0.0133525   237.9066273   0.0121643   118.76069   79.1737933   0.0004539   237.4915921   0.0121876   0.0133551   238.0640742   0.012167   
05498   237.9718328   0.0121857   0.0133549   238.243953   0.012165   118.9296703   79.2864469   0.0004544   237.9555273   0.0121876   0.0133574   238.5252669   0.012167   
05499   238.3762621   0.0121859   0.013357   238.6491285   0.0121651   119.1322231   79.4214821   0.0004551   238.3390779   0.0121879   0.0133596   238.9062105   0.0121673   
05500   231.7035039   0.0122324   0.0133701   231.9538258   0.0122116   115.7884751   77.1923167   0.0004446   231.679431   0.0122347   0.0133727   232.1150029   0.0122141   
05501   232.1392914   0.0122324   0.0133723   232.3907741   0.0122116   116.0066796   77.3377864   0.0004453   232.1153123   0.0122347   0.0133749   232.5529154   0.0122141   
05502   232.5756459   0.0122324   0.0133745   232.8282766   0.0122116   116.2251647   77.4834431   0.000446   232.5511535   0.0122347   0.0133771   232.9904595   0.0122141   
05503   233.0059702   0.0122325   0.0133767   233.2598522   0.0122117   116.4406831   77.6271221   0.0004467   232.9879901   0.0122347   0.0133793   233.4311758   0.0122141   
05504   233.439833   0.0122325   0.0133789   233.694896   0.0122117   116.6579348   77.7719566   0.0004473   233.4245594   0.0122347   0.0133815   233.8694947   0.0122141   
05505   233.8728244   0.0122325   0.0133811   234.1291235   0.0122117   116.8747964   77.9165309   0.000448   233.8607756   0.0122347   0.0133837   234.3086631   0.0122141   
05506   234.2981266   0.0122326   0.0133833   234.5559397   0.0122118   117.0879477   78.0586318   0.0004487   234.2999482   0.0122347   0.0133859   234.7483601   0.0122141   
05507   234.6839326   0.0122329   0.0133855   234.9442307   0.0122121   117.281937   78.187958   0.0004493   234.7496564   0.0122347   0.0133881   235.2015608   0.0122141   
05508   235.0931182   0.0122331   0.0133878   235.3551443   0.0122123   117.4870968   78.3247312   0.0004499   235.1942292   0.0122347   0.0133903   235.6448314   0.0122141   
05509   235.5265373   0.0122331   0.01339   235.7897624   0.0122123   117.704128   78.4694187   0.0004506   235.6304627   0.0122347   0.0133925   236.0836924   0.0122141   
05510   235.9570454   0.0122332   0.0133921   236.2215518   0.0122124   117.9197647   78.6131765   0.0004513   236.0678504   0.0122347   0.0133947   236.5227602   0.0122141   
05511   236.3928187   0.0122332   0.0133943   236.6584801   0.0122124   118.1379647   78.7586431   0.000452   236.503602   0.0122347   0.0133969   236.9606199   0.0122141   
05512   236.8287755   0.0122332   0.0133965   237.0955596   0.0122124   118.3562373   78.9041582   0.0004527   236.9391611   0.0122347   0.0133991   237.3979322   0.0122141   
05513   237.2092036   0.0122335   0.0133988   237.4778701   0.0122127   118.5470266   79.0313511   0.0004532   237.3198466   0.0122351   0.0134014   237.7854526   0.0122144   
05514   237.6164994   0.0122337   0.013401   237.8869786   0.0122129   118.7512498   79.1674999   0.0004539   237.7626964   0.0122351   0.0134036   238.2327269   0.0122144   
05515   237.992483   0.0122341   0.0134033   238.2648121   0.0122133   118.940119   79.2934127   0.0004545   238.1815911   0.0122353   0.0134059   238.6554865   0.0122146   
05516   238.3561685   0.0122346   0.0134056   238.6299939   0.0122138   119.1226482   79.4150988   0.000455   238.6201297   0.0122353   0.0134081   239.0974388   0.0122146   
05517   238.683927   0.0122349   0.0134075   238.95734   0.0122141   119.2861256   79.5240838   0.0004556   238.8149311   0.0122363   0.0134101   239.3018435   0.0122156   
05518   239.0009498   0.0122356   0.0134098   239.2757026   0.0122147   119.3970034   79.5980022   0.000456   239.232026   0.0122364   0.0134124   239.7310166   0.0122157   
05519   239.4084362   0.0122357   0.013412   239.6848571   0.0122149   119.6016525   79.734435   0.0004567   239.6257631   0.0122367   0.0134146   240.1332511   0.012216   
05520   239.6746903   0.0122367   0.0134143   239.9520023   0.0122159   119.7346453   79.8230969   0.0004571   240.0454396   0.0122368   0.0134168   240.5424956   0.0122161   
05521   240.0318882   0.0122369   0.0134163   240.3099744   0.0122161   119.9139104   79.942607   0.0004576   240.4355061   0.012237   0.0134189   240.9324349   0.0122163   
05522   240.3406523   0.0122374   0.0134184   240.6160091   0.0122166   120.1213507   80.0809005   0.0004583   240.8409675   0.0122371   0.013421   241.3225093   0.0122164   
05523   229.3589643   0.0122441   0.0133701   229.6071809   0.0122233   114.5402132   76.3601421   0.0004473   230.2595834   0.012242   0.0133729   230.6867536   0.0122213   
05524   229.7962393   0.0122441   0.0133723   230.0455653   0.0122233   114.7591373   76.5060915   0.000448   230.6951477   0.012242   0.0133751   231.1240577   0.0122213   
05525   230.2335153   0.0122441   0.0133745   230.4839497   0.0122233   114.9780613   76.6520408   0.0004487   231.1307124   0.012242   0.0133772   231.5613618   0.0122213   
05526   230.6664047   0.0122441   0.0133767   230.9179927   0.0122233   115.194744   76.796496   0.0004493   231.5625628   0.012242   0.0133794   231.9949427   0.0122213   
05527   231.0961665   0.0122441   0.0133788   231.348943   0.0122233   115.4093307   76.9395538   0.00045   231.9908523   0.012242   0.0133815   232.4250913   0.0122213   
05528   231.5326761   0.0122441   0.013381   231.7865606   0.0122233   115.627757   77.0851714   0.0004507   232.4256467   0.012242   0.0133837   232.8616282   0.0122213   
05529   231.8263461   0.0122441   0.0133825   232.0818552   0.0122233   115.8965743   77.2643828   0.0004525   232.7171347   0.012242   0.0133852   233.1564419   0.0122213   
05530   232.2636267   0.0122441   0.0133847   232.5202395   0.0122233   116.1154982   77.4103321   0.0004532   233.1527046   0.012242   0.0133874   233.5937461   0.0122213   
05531   232.698135   0.0122441   0.0133868   232.9558476   0.0122233   116.3328648   77.5552432   0.0004539   233.5855496   0.012242   0.0133895   234.0282604   0.0122213   
05532   233.0702531   0.0122441   0.0133887   233.3292999   0.0122233   116.5092595   77.6728397   0.0004546   233.954768   0.012242   0.0133914   234.399534   0.0122213   
05533   233.5041649   0.0122441   0.0133909   233.7624555   0.0122233   116.7256169   77.817078   0.0004553   234.3886457   0.012242   0.0133936   234.8347948   0.0122213   
05534   233.9383406   0.0122442   0.0133931   234.1978177   0.0122234   116.9430379   77.9620253   0.0004559   234.8269138   0.012242   0.0133957   235.2702735   0.0122213   
05535   234.3615122   0.0122442   0.0133952   234.6222556   0.0122234   117.1758624   78.1172416   0.0004568   235.1403895   0.0122425   0.0133979   235.5950441   0.0122218   
05536   234.7870274   0.0122442   0.0133974   235.0490895   0.0122234   117.389119   78.2594127   0.0004575   235.5699899   0.0122425   0.0134001   236.0257163   0.0122218   
05537   235.2185606   0.0122443   0.0133996   235.4818142   0.0122235   117.6118136   78.4078757   0.0004582   236.0064153   0.0122425   0.0134022   236.4638706   0.0122218   
05538   235.3456953   0.0122462   0.0134022   235.6115336   0.0122254   117.6767567   78.4511711   0.0004584   235.954895   0.0122454   0.0134049   236.4274217   0.0122247   
05539   235.7819691   0.0122462   0.0134044   236.048919   0.0122254   117.8951097   78.5967398   0.0004591   236.3894008   0.0122454   0.013407   236.8636838   0.0122247   
05540   236.2102945   0.0122462   0.0134065   236.4783495   0.0122254   118.0548568   78.7032379   0.00046   236.8159932   0.0122454   0.0134092   237.2920299   0.0122247   
05541   236.585873   0.0122463   0.0134084   236.8554381   0.0122254   118.3616354   78.9077569   0.0004683   237.1912701   0.0122454   0.0134111   237.6699214   0.0122247   
05542   236.7530093   0.012248   0.013411   237.0242057   0.0122272   118.4460867   78.9640578   0.0004685   237.6610553   0.0122456   0.0134137   238.1436543   0.0122249   
05543   237.1881814   0.012248   0.0134132   237.4604877   0.0122272   118.6642122   79.1094748   0.0004692   238.0956926   0.0122456   0.0134158   238.5800027   0.0122249   
05544   237.5941808   0.012248   0.0134152   237.8676364   0.0122272   118.8548422   79.2365614   0.0004698   238.503983   0.0122456   0.0134179   238.9899201   0.0122249   
05545   237.9689488   0.0122484   0.0134175   238.244181   0.0122276   119.0427915   79.361861   0.0004704   238.9507328   0.0122456   0.0134201   239.4373106   0.0122249   
05546   233.2647913   0.0122821   0.0134276   233.5089904   0.0122613   116.5280537   77.6853692   0.0004635   233.859507   0.0122813   0.0134303   234.3501735   0.0122606   
05547   233.7014945   0.0122822   0.0134297   233.9468388   0.0122613   116.7467029   77.8311353   0.0004641   234.2952202   0.0122813   0.0134324   234.7876324   0.0122606   
05548   234.1387521   0.0122822   0.0134319   234.3852231   0.0122613   116.9656273   77.9770849   0.0004648   234.730769   0.0122813   0.0134346   235.2249365   0.0122606   
05549   234.5694991   0.0122822   0.0134341   234.8172233   0.0122613   117.1813616   78.1209078   0.0004655   235.1686717   0.0122813   0.0134368   235.6635934   0.0122606   
05550   235.0023478   0.0122822   0.0134363   235.2513267   0.0122614   117.3981966   78.2654644   0.0004662   235.6053859   0.0122813   0.013439   236.1023527   0.0122606   
05551   235.4341478   0.0122823   0.0134385   235.6843511   0.0122614   117.6144137   78.4096091   0.0004669   236.0429157   0.0122813   0.0134412   236.5409305   0.0122606   
05552   235.8648243   0.0122823   0.0134407   236.1162689   0.0122614   117.8301512   78.5534341   0.0004675   236.480312   0.0122813   0.0134434   236.9804145   0.0122606   
05553   236.2989835   0.0122823   0.0134429   236.5515947   0.0122615   118.0475171   78.6983447   0.0004682   236.9168082   0.0122813   0.0134456   237.418614   0.0122606   
05554   236.735511   0.0122823   0.0134451   236.989259   0.0122615   118.2660907   78.8440605   0.0004689   237.3531152   0.0122813   0.0134478   237.8552474   0.0122606   
05555   237.1341062   0.0122826   0.0134474   237.3897357   0.0122617   118.46624   78.9774934   0.0004695   237.769909   0.0122814   0.01345   238.2762408   0.0122607   
05556   237.4569816   0.0122833   0.0134497   237.7154579   0.0122624   118.6288936   79.0859291   0.00047   238.0386387   0.0122824   0.0134523   238.565668   0.0122617   
05557   237.86947   0.0122835   0.0134519   238.12948   0.0122626   118.8356345   79.2237564   0.0004707   238.4829095   0.0122824   0.0134546   239.0086465   0.0122617   
05558   238.3043725   0.0122835   0.0134541   238.5655348   0.0122626   119.053394   79.3689293   0.0004714   238.9175873   0.0122824   0.0134567   239.44499   0.0122617   
05559   238.7072062   0.0122836   0.0134563   238.96961   0.0122627   119.2703048   79.5135365   0.0004722   239.3479745   0.0122824   0.0134589   239.8667243   0.0122617   
05560   239.0928717   0.0122839   0.0134585   239.3571341   0.0122631   119.4637142   79.6424761   0.0004728   239.6904179   0.0122829   0.0134611   240.2146026   0.0122622   
05561   239.5021489   0.0122841   0.0134607   239.7679819   0.0122632   119.6626243   79.7750829   0.0004735   240.1295956   0.0122829   0.0134633   240.6565459   0.0122622   
05562   239.9184059   0.0122842   0.0134629   240.1852412   0.0122633   120.0180667   80.0120444   0.0004749   240.5631689   0.0122829   0.0134655   241.0913182   0.0122622   
05563   240.2599267   0.0122848   0.0134652   240.5288261   0.0122639   120.1896248   80.1264165   0.0004755   240.9114444   0.0122835   0.0134678   241.4399784   0.0122628   
05564   240.6665679   0.012285   0.0134674   240.9368535   0.0122641   120.3934882   80.2623255   0.0004761   241.2858562   0.0122838   0.01347   241.8206616   0.0122631   
05565   240.4951013   0.0122884   0.0134701   240.7661375   0.0122676   120.3069581   80.2046387   0.0004758   241.3094457   0.0122861   0.0134725   241.8542205   0.0122654   
05566   229.5091179   0.0123632   0.0134897   229.7428616   0.0123423   114.8005643   76.5337095   0.0004586   229.888005   0.0123632   0.0134924   230.456185   0.0123424   
05567   229.9463684   0.0123632   0.0134919   230.1812459   0.0123423   115.0194881   76.6796587   0.0004593   230.3235334   0.0123632   0.0134946   230.8934888   0.0123424   
05568   230.3827128   0.0123632   0.0134941   230.6187273   0.0123423   115.2379598   76.8253065   0.00046   230.7593604   0.0123632   0.0134968   231.3310934   0.0123424   
05569   230.819032   0.0123632   0.0134963   231.0562162   0.0123423   115.4564251   76.97095   0.0004607   231.1950481   0.0123632   0.0134989   231.7685934   0.0123424   
05570   231.2531937   0.0123632   0.0134985   231.4916032   0.0123423   115.6738743   77.1159162   0.0004613   231.6312654   0.0123632   0.0135011   232.2067318   0.0123424   
05571   231.6904489   0.0123632   0.0135007   231.9299875   0.0123423   115.8927984   77.2618656   0.000462   232.0667987   0.0123632   0.0135033   232.644036   0.0123424   
05572   232.1212211   0.0123632   0.0135029   232.3618867   0.0123423   116.1085195   77.4056797   0.0004627   232.4439028   0.0123635   0.0135055   233.0239924   0.0123427   
05573   232.5567488   0.0123633   0.0135051   232.7985958   0.0123424   116.3266217   77.5510811   0.0004634   232.8799243   0.0123635   0.0135077   233.4618462   0.0123427   
05574   232.9940075   0.0123633   0.0135073   233.2369801   0.0123424   116.5455457   77.6970304   0.0004641   233.3154629   0.0123635   0.0135099   233.8991503   0.0123427   
05575   233.4156219   0.0123634   0.0135095   233.6599091   0.0123425   116.7567464   77.8378309   0.0004647   233.7564554   0.0123635   0.0135121   234.3415016   0.0123427   
05576   233.8528835   0.0123634   0.0135117   234.0982934   0.0123425   116.9756704   77.9837803   0.0004654   234.1919964   0.0123635   0.0135143   234.7788055   0.0123427   
05577   234.2901461   0.0123634   0.0135139   234.5366778   0.0123425   117.1945944   78.1297296   0.0004661   234.6275386   0.0123635   0.0135165   235.2161099   0.0123427   
05578   234.7274098   0.0123634   0.0135161   234.9750621   0.0123425   117.4135185   78.275679   0.0004668   235.0630819   0.0123635   0.0135186   235.6534138   0.0123427   
05579   235.1604512   0.0123634   0.0135182   235.4093149   0.0123425   117.63037   78.4202467   0.0004675   235.4998611   0.0123635   0.0135208   236.0920721   0.0123427   
05580   235.576333   0.0123635   0.0135205   235.8268851   0.0123426   117.8388267   78.5592178   0.0004681   235.9413317   0.0123635   0.013523   236.5363548   0.0123427   
05581   236.013046   0.0123635   0.0135227   236.2647321   0.0123426   118.0574785   78.7049856   0.0004688   236.377044   0.0123635   0.0135252   236.9738184   0.0123427   
05582   236.448919   0.0123635   0.0135248   236.7017482   0.0123426   118.2757201   78.8504801   0.0004695   236.8129484   0.0123635   0.0135274   237.4114925   0.0123427   
05583   236.8478   0.0123638   0.0135271   237.1023682   0.0123429   118.475761   78.9838407   0.0004701   237.2597976   0.0123635   0.0135296   237.8604189   0.0123427   
05584   237.281317   0.0123638   0.0135293   237.537022   0.0123429   118.6928605   79.1285736   0.0004708   237.681405   0.0123636   0.0135318   238.2817727   0.0123428   
05585   237.7064265   0.0123639   0.0135315   237.9634896   0.012343   118.9058324   79.2705549   0.0004715   238.1204682   0.0123636   0.013534   238.7226694   0.0123428   
05586   238.1392462   0.0123639   0.0135337   238.3975059   0.012343   119.1225883   79.4150589   0.0004721   238.5573135   0.0123636   0.0135362   239.1614981   0.0123428   
05587   238.557513   0.012364   0.0135359   238.8176357   0.0123431   119.3324025   79.554935   0.0004728   238.9976287   0.0123636   0.0135384   239.6039845   0.0123428   
05588   238.9926536   0.012364   0.0135381   239.2539283   0.0123431   119.5502984   79.7001989   0.0004735   239.4338338   0.0123636   0.0135406   240.0419094   0.0123428   
05589   239.4273005   0.0123641   0.0135403   239.6897322   0.0123432   119.7679202   79.8452801   0.0004742   239.8700126   0.0123636   0.0135428   240.479889   0.0123428   
05590   239.8594078   0.0123641   0.0135425   240.1229239   0.0123432   119.9842658   79.9895105   0.0004748   240.3069602   0.0123636   0.013545   240.9192995   0.0123428   
05591   240.2685279   0.0123643   0.0135447   240.5335952   0.0123434   120.1893591   80.1262394   0.0004755   240.7491941   0.0123636   0.0135472   241.3638062   0.0123428   
05592   240.6795293   0.0123644   0.0135469   240.9456167   0.0123435   120.3951625   80.2634417   0.0004761   241.1789171   0.0123636   0.0135494   241.7928369   0.0123428   
05593   231.0742915   0.0123681   0.0135024   231.2989421   0.0123471   115.5791715   77.052781   0.000461   231.7460363   0.0123648   0.0135033   232.3269609   0.012344   
05594   231.5108571   0.0123681   0.0135046   231.7366292   0.0123471   115.7977377   77.1984918   0.0004617   232.1809069   0.0123648   0.0135055   232.7635857   0.012344   
05595   231.9467587   0.0123681   0.0135068   232.1736348   0.0123471   116.015958   77.343972   0.0004624   232.6151667   0.0123648   0.0135077   233.1995605   0.012344   
05596   232.3794038   0.0123681   0.013509   232.6069441   0.0123471   116.2322587   77.4881725   0.0004631   233.0477004   0.0123648   0.0135098   233.6331102   0.012344   
05597   232.8157445   0.0123681   0.0135111   233.0443809   0.0123471   116.4507112   77.6338075   0.0004638   233.4824249   0.0123648   0.013512   234.0695398   0.012344   
05598   233.2504499   0.0123681   0.0135133   233.4800655   0.0123471   116.6683022   77.7788681   0.0004645   233.9158596   0.0123648   0.0135142   234.5044976   0.012344   
05599   233.6801175   0.0123681   0.0135155   233.9108016   0.0123471   116.883498   77.922332   0.0004651   234.3441805   0.0123648   0.0135163   234.934391   0.012344   
05600   234.1137472   0.0123681   0.0135176   234.345063   0.0123471   117.100323   78.066882   0.0004658   234.7777267   0.0123648   0.0135185   235.3690164   0.012344   
05601   234.546843   0.0123681   0.0135198   234.7790667   0.0123471   117.3170221   78.2113481   0.0004665   235.2098162   0.0123648   0.0135207   235.8024852   0.012344   
05602   234.9784142   0.0123681   0.013522   235.2117668   0.0123471   117.5330212   78.3553475   0.0004672   235.6395239   0.0123648   0.0135228   236.233979   0.012344   
05603   235.4077956   0.0123681   0.0135241   235.6424248   0.0123471   117.7480219   78.4986813   0.0004678   236.0665848   0.0123648   0.013525   236.6631021   0.012344   
05604   235.8450698   0.0123681   0.0135263   236.0808092   0.0123471   117.9669458   78.6446305   0.0004685   236.5021424   0.0123648   0.0135271   237.1004061   0.012344   
05605   236.2744156   0.0123681   0.0135285   236.5107328   0.0123471   118.181633   78.7877553   0.0004692   236.9331193   0.0123648   0.0135293   237.5320503   0.012344   
05606   236.7060175   0.0123681   0.0135306   236.9432737   0.0123471   118.3975973   78.9317315   0.0004699   237.3638463   0.0123648   0.0135315   237.9641493   0.012344   
05607   237.1385143   0.0123681   0.0135328   237.3766886   0.0123471   118.6140405   79.076027   0.0004705   237.7965311   0.0123648   0.0135336   238.3980271   0.012344   
05608   237.5710155   0.0123681   0.013535   237.8102916   0.0123471   118.830518   79.2203453   0.0004712   238.2291094   0.0123648   0.0135358   238.832283   0.012344   
05609   237.9646314   0.0123682   0.0135371   238.2072536   0.0123473   119.0286917   79.3524612   0.0004718   238.6434936   0.0123648   0.0135379   239.2497094   0.012344   
05610   238.3694291   0.0123683   0.0135392   238.6122588   0.0123473   119.2310423   79.4873615   0.0004725   239.0502722   0.0123648   0.0135399   239.6565072   0.012344   
05611   238.8020316   0.0123683   0.0135413   239.0463771   0.0123473   119.4478549   79.6319033   0.0004732   239.4820108   0.0123648   0.0135421   240.0900275   0.012344   
05612   239.2285976   0.0123683   0.0135435   239.4741474   0.0123474   119.6614667   79.7743112   0.0004738   239.9195723   0.0123648   0.0135443   240.5260416   0.012344   
05613   239.6552244   0.0123684   0.0135457   239.9016951   0.0123475   119.8749307   79.9166205   0.0004745   240.2984316   0.0123651   0.0135464   240.901972   0.0123443   
05614   239.7560896   0.0123684   0.0135462   239.9879614   0.0123475   119.9178254   79.9452169   0.0004746   240.4872558   0.0123652   0.0135474   241.0577715   0.0123444   
05615   240.1847596   0.0123685   0.0135484   240.4179275   0.0123475   120.1324981   80.0883321   0.0004753   240.9242204   0.0123652   0.0135496   241.4966243   0.0123444   
05616   240.6098421   0.0123685   0.0135506   240.8444531   0.0123475   120.3454635   80.230309   0.000476   241.3461461   0.0123652   0.0135517   241.9209797   0.0123444   
05617   240.9882639   0.0123688   0.0135528   241.224389   0.0123479   120.5352952   80.3568634   0.0004766   241.793469   0.0123652   0.013554   242.3688775   0.0123444   
05618   241.1868333   0.0123703   0.0135552   241.4226096   0.0123493   120.6233545   80.4155696   0.0004769   242.1701693   0.0123657   0.0135564   242.750321   0.0123449   
05619   241.6090585   0.0123703   0.0135574   241.8440125   0.0123494   120.833666   80.5557773   0.0004776   242.6057984   0.0123657   0.0135586   243.1781719   0.0123449   
05620   241.8434688   0.0123716   0.0135598   242.0823341   0.0123506   120.9842923   80.6561949   0.0004781   242.7940257   0.0123672   0.0135609   243.3562045   0.0123464   
05621   242.1370799   0.0123721   0.0135619   242.3783544   0.0123512   121.1095257   80.7396838   0.0004845   243.1077922   0.0123676   0.013563   243.6819702   0.0123468   
05622   242.4029241   0.0123729   0.013564   242.6417034   0.012352   121.240711   80.8271407   0.0004849   243.3955458   0.0123684   0.0135652   243.9569449   0.0123476   
05623   242.5978991   0.0123743   0.0135664   242.8355023   0.0123534   121.5259669   81.0173112   0.0004868   243.2672085   0.0123716   0.0135677   243.7914087   0.0123508   
05624   242.824756   0.0123755   0.0135687   243.0636294   0.0123546   121.6422506   81.0948338   0.0004871   243.6993845   0.0123718   0.01357   244.2200163   0.012351   
05625   243.1219285   0.012376   0.0135707   243.3625164   0.0123551   121.7947486   81.1964991   0.0004877   243.9023046   0.0123727   0.013572   244.421822   0.0123519   
05626   234.0643263   0.0124381   0.0135874   234.2706172   0.0124172   117.2543002   78.1695334   0.0004735   234.3122935   0.0124376   0.0135887   234.7890029   0.0124168   
05627   234.4997267   0.0124381   0.0135895   234.7072171   0.0124172   117.4723327   78.3148885   0.0004742   234.7483537   0.0124376   0.0135909   235.2268645   0.0124168   
05628   234.9193677   0.0124383   0.0135918   235.128602   0.0124173   117.6827677   78.4551785   0.0004748   235.1888373   0.0124376   0.0135931   235.6694678   0.0124168   
05629   235.351861   0.0124383   0.013594   235.5622989   0.0124173   117.899354   78.5995693   0.0004755   235.6257416   0.0124376   0.0135953   236.108251   0.0124168   
05630   235.7863165   0.0124383   0.0135962   235.9979632   0.0124173   118.1169133   78.7446089   0.0004762   236.0619856   0.0124376   0.0135975   236.5465335   0.0124168   
05631   236.2235745   0.0124383   0.0135983   236.4363475   0.0124173   118.3358371   78.8905581   0.0004769   236.4975328   0.0124376   0.0135996   236.9838377   0.0124168   
05632   236.6585909   0.0124383   0.0136005   236.8725293   0.0124173   118.553659   79.0357726   0.0004776   236.9337154   0.0124376   0.0136018   237.4218376   0.0124168   
05633   237.0863514   0.0124384   0.0136027   237.3017033   0.0124174   118.7679816   79.1786544   0.0004782   237.3719105   0.0124376   0.013604   237.8620347   0.0124168   
05634   237.4715531   0.0124387   0.013605   237.6888858   0.0124177   118.96133   79.3075534   0.0004788   237.8217778   0.0124376   0.0136063   238.3164694   0.0124168   
05635   237.9080813   0.0124387   0.0136072   238.1265477   0.0124177   119.1798961   79.453264   0.0004795   238.2575732   0.0124376   0.0136085   238.7539866   0.0124168   
05636   238.3378011   0.0124388   0.0136094   238.557533   0.0124178   119.3951196   79.5967464   0.0004802   238.6954388   0.0124376   0.0136107   239.1935765   0.0124168   
05637   238.7689133   0.0124388   0.0136116   238.9898417   0.0124178   119.6110266   79.7406844   0.0004809   239.1335938   0.0124376   0.0136129   239.6315237   0.0124168   
05638   239.1938381   0.0124389   0.0136138   239.4161344   0.0124179   119.8239069   79.8826046   0.0004815   239.5726243   0.0124376   0.0136151   240.0726502   0.0124168   
05639   239.6298711   0.0124389   0.013616   239.8532867   0.0124179   120.042221   80.0281474   0.0004822   240.0085607   0.0124376   0.0136172   240.5103299   0.0124168   
05640   240.0637757   0.0124389   0.0136182   240.288421   0.0124179   120.2595314   80.1730209   0.0004829   240.4449481   0.0124376   0.0136194   240.9489412   0.0124168   
05641   240.4973092   0.0124389   0.0136204   240.7231502   0.012418   120.4766114   80.3177409   0.0004836   240.8816728   0.0124376   0.0136216   241.387352   0.0124168   
05642   240.3887447   0.0124424   0.0136234   240.6214485   0.0124215   120.425645   80.2837633   0.0004834   241.328475   0.0124383   0.0136246   241.8459119   0.0124175   
05643   240.8061702   0.0124426   0.0136256   241.0404592   0.0124216   120.6348812   80.4232542   0.0004841   241.7700262   0.0124383   0.0136268   242.2892142   0.0124175   
05644   241.2434565   0.0124426   0.0136278   241.4788435   0.0124216   120.853805   80.5692034   0.0004848   242.205594   0.0124383   0.013629   242.7265188   0.0124175   
05645   241.6700348   0.0124426   0.01363   241.9061838   0.0124216   121.0672699   80.7115132   0.0004854   242.6435036   0.0124383   0.0136312   243.1658728   0.0124175   
05646   242.0961293   0.0124427   0.0136322   242.3340067   0.0124217   121.2809887   80.8539924   0.0004861   243.032777   0.0124385   0.0136333   243.5650571   0.0124177   
05647   242.5135704   0.0124428   0.0136344   242.7527348   0.0124218   121.4900833   80.9933889   0.0004868   243.448767   0.0124386   0.0136355   243.9846457   0.0124178   
05648   242.8410585   0.0124435   0.0136367   243.0824983   0.0124225   121.6552577   81.1035051   0.0004873   243.8276283   0.012439   0.0136378   244.3672678   0.0124182   
05649   235.3956321   0.0124951   0.0136509   235.6143928   0.012474   117.9249802   78.6166534   0.0004756   236.003144   0.0124926   0.0136522   236.4900176   0.0124718   
05650   235.830607   0.0124951   0.0136531   236.0505726   0.012474   118.1428018   78.7618679   0.0004763   236.4393813   0.0124926   0.0136544   236.9280284   0.0124718   
05651   236.2670454   0.0124951   0.0136553   236.4881395   0.0124741   118.3613188   78.9075458   0.000477   236.8752009   0.0124926   0.0136566   237.3655795   0.0124718   
05652   236.7032633   0.0124951   0.0136575   236.9255023   0.0124741   118.5797294   79.0531529   0.0004777   237.3110868   0.0124926   0.0136588   237.8032079   0.0124718   
05653   237.1199321   0.0124952   0.0136597   237.3437654   0.0124742   118.788599   79.1923993   0.0004783   237.7040084   0.0124929   0.013661   238.1948421   0.012472   
05654   237.5554894   0.0124952   0.0136619   237.7804715   0.0124742   119.0066883   79.3377922   0.000479   238.140111   0.0124929   0.0136632   238.6326489   0.012472   
05655   237.9918591   0.0124952   0.0136641   238.2179762   0.0124742   119.2251733   79.4834489   0.0004797   238.5753621   0.0124929   0.0136653   239.0707387   0.012472   
05656   238.3608574   0.0124957   0.0136664   238.5891488   0.0124746   119.410504   79.6070026   0.0004803   239.0279878   0.0124929   0.0136676   239.5337666   0.012472   
05657   238.794365   0.0124957   0.0136686   239.023792   0.0124747   119.6275582   79.7517054   0.0004809   239.4640449   0.0124929   0.0136698   239.9730803   0.012472   
05658   239.2316465   0.0124957   0.0136708   239.4621763   0.0124747   119.8464824   79.8976549   0.0004816   239.8996193   0.0124929   0.013672   240.4103843   0.012472   
05659   239.6102625   0.0124961   0.0136731   239.8431354   0.012475   120.0367129   80.0244753   0.0004822   240.3526252   0.0124929   0.0136743   240.865353   0.012472   
05660   240.0463468   0.0124961   0.0136753   240.2803545   0.0124751   120.2550551   80.1700367   0.0004829   240.7401805   0.0124931   0.0136764   241.2571241   0.0124722   
05661   240.4836337   0.0124961   0.0136774   240.7187388   0.0124751   120.4739789   80.315986   0.0004836   241.1757585   0.0124931   0.0136786   241.6944283   0.0124722   
05662   240.9101301   0.0124961   0.0136797   241.1465751   0.0124751   120.6876208   80.4584138   0.0004843   241.6147015   0.0124931   0.0136808   242.1345896   0.0124722   
05663   241.3456906   0.0124962   0.0136818   241.5832648   0.0124751   120.9056983   80.6037988   0.0004849   242.0523756   0.0124931   0.013683   242.5702448   0.0124722   
05664   241.781003   0.0124962   0.013684   242.0197127   0.0124751   121.1236556   80.7491037   0.0004856   242.4891396   0.0124931   0.0136852   243.0070333   0.0124722   
05665   242.1853865   0.0124964   0.0136863   242.4257115   0.0124754   121.3263889   80.8842592   0.0004862   242.9342902   0.0124931   0.0136874   243.4534909   0.0124722   
05666   242.6215094   0.0124964   0.0136885   242.8630816   0.0124754   121.544787   81.029858   0.0004869   243.369944   0.0124931   0.0136896   243.8908401   0.0124722   
05667   242.9979512   0.0124967   0.0136907   243.2426516   0.0124757   121.7683689   81.1789126   0.0004876   243.8187702   0.0124931   0.0136918   244.3380353   0.0124722   
05668   236.6507006   0.0125411   0.0137032   236.861105   0.01252   118.6234153   79.0822769   0.0004778   237.6107035   0.0125372   0.0137047   238.0772322   0.0125163   
05669   237.0838299   0.0125411   0.0137054   237.2954463   0.0125201   118.8403549   79.2269033   0.0004785   238.0473893   0.0125372   0.0137069   238.5159909   0.0125163   
05670   237.517386   0.0125412   0.0137076   237.7302321   0.0125201   119.0574575   79.3716383   0.0004792   238.4845348   0.0125372   0.0137091   238.9542094   0.0125163   
05671   237.9237658   0.0125414   0.0137098   238.1376414   0.0125203   119.2608994   79.5072663   0.0004798   238.6356861   0.0125387   0.0137113   239.1301946   0.0125177   
05672   238.3571806   0.0125414   0.013712   238.572293   0.0125203   119.4779412   79.6519608   0.0004805   239.0721139   0.0125387   0.0137135   239.5684972   0.0125177   
05673   238.7937969   0.0125414   0.0137142   239.0100395   0.0125203   119.6965442   79.7976961   0.0004812   239.5078916   0.0125387   0.0137157   240.0060304   0.0125177   
05674   239.2310631   0.0125414   0.0137164   239.4484238   0.0125203   119.915468   79.9436453   0.0004819   239.9434533   0.0125387   0.0137179   240.4433344   0.0125177   
05675   239.6683302   0.0125414   0.0137186   239.8868082   0.0125203   120.1343925   80.089595   0.0004826   240.379016   0.0125387   0.0137201   240.8806387   0.0125177   
05676   240.0945012   0.0125415   0.0137208   240.3139948   0.0125204   120.3477142   80.2318095   0.0004832   240.7820925   0.0125389   0.0137223   241.2809723   0.0125179   
05677   240.499534   0.0125417   0.013723   240.7204036   0.0125206   120.5506714   80.3671143   0.0004839   241.2311912   0.0125389   0.0137245   241.7292221   0.0125179   
05678   240.9265805   0.0125417   0.0137252   241.1486759   0.0125207   120.7645278   80.5096852   0.0004845   241.6689549   0.0125389   0.0137267   242.1690548   0.0125179   
05679   241.3638537   0.0125417   0.0137274   241.5870603   0.0125207   120.9834515   80.6556343   0.0004852   242.1045249   0.0125389   0.0137289   242.606359   0.0125179   
05680   241.794701   0.0125418   0.0137296   242.0192914   0.0125207   121.1992572   80.7995048   0.0004859   242.5396409   0.0125389   0.0137311   243.0439052   0.0125179   
05681   242.2210245   0.0125418   0.0137318   242.4469245   0.0125208   121.4127048   80.9418032   0.0004866   242.9768269   0.0125389   0.0137333   243.4808087   0.0125179   
05682   242.6556169   0.0125419   0.013734   242.8825512   0.0125208   121.6302685   81.0868456   0.0004873   243.4127741   0.0125389   0.0137355   243.9185296   0.0125179   
05683   243.0842389   0.0125419   0.0137362   243.3124182   0.0125208   121.8449021   81.2299347   0.0004879   243.8509519   0.0125389   0.0137377   244.3583036   0.0125179   
05684   232.613516   0.0126133   0.013755   232.8084616   0.0125921   116.6392105   77.7594737   0.0004723   233.3575785   0.0126105   0.0137566   233.7855792   0.0125895   
05685   233.0372716   0.0126133   0.0137573   233.2337427   0.0125922   116.8517982   77.9011988   0.000473   233.7239768   0.0126109   0.0137588   234.1445387   0.0125899   
05686   233.4745143   0.0126133   0.0137594   233.6721271   0.0125922   117.0707217   78.0471478   0.0004736   234.1595202   0.0126109   0.013761   234.5818428   0.0125899   
05687   233.90831   0.0126134   0.0137616   234.1071662   0.0125922   117.2879404   78.1919603   0.0004743   234.5962329   0.0126109   0.0137632   235.0199283   0.0125899   
05688   234.3449224   0.0126134   0.0137638   234.544929   0.0125922   117.5065333   78.3376889   0.000475   235.0319637   0.0126109   0.0137654   235.457436   0.0125899   
05689   234.6732793   0.0126141   0.0137662   234.8759785   0.0125929   117.6712662   78.4475108   0.0004755   235.2670907   0.0126121   0.0137677   235.6783388   0.0125911   
05690   235.0928808   0.0126142   0.0137684   235.2970533   0.0125931   117.8815722   78.5877148   0.0004762   235.7083811   0.0126121   0.0137699   236.119858   0.0125911   
05691   235.5197819   0.0126142   0.0137706   235.7252311   0.0125931   118.0954079   78.7302719   0.0004768   236.1461365   0.0126121   0.0137721   236.5615584   0.0125911   
05692   235.9505518   0.0126143   0.0137728   236.1572631   0.0125932   118.3110767   78.8740511   0.0004775   236.4798349   0.0126126   0.0137743   236.9097452   0.0125916   
05693   236.3666642   0.0126144   0.013775   236.5749563   0.0125933   118.5201098   79.0134065   0.0004782   236.9222671   0.0126126   0.0137765   237.3526398   0.0125916   
05694   236.7875131   0.0126145   0.0137772   236.9972299   0.0125934   118.7308445   79.1538963   0.0004788   237.363369   0.0126126   0.0137787   237.7938799   0.0125916   
05695   237.2242552   0.0126145   0.0137794   237.4351209   0.0125934   118.9495195   79.2996797   0.0004795   237.799086   0.0126126   0.0137809   238.2313402   0.0125916   
05696   237.4894888   0.0126156   0.0137819   237.7048858   0.0125945   119.082876   79.388584   0.0004799   238.2846536   0.0126126   0.0137834   238.7196091   0.0125916   
05697   237.8956497   0.0126158   0.0137841   238.1124893   0.0125947   119.2867798   79.5245199   0.0004806   238.7301042   0.0126126   0.0137856   239.1655283   0.0125916   
05698   238.3246195   0.0126159   0.0137863   238.5426938   0.0125948   119.501553   79.667702   0.0004812   239.1682417   0.0126126   0.0137878   239.6053459   0.0125916   
05699   238.6881791   0.0126164   0.0137886   238.9078335   0.0125952   119.6834966   79.7889977   0.0004818   239.6333499   0.0126126   0.0137901   240.0554293   0.0125916   
05700   239.1102153   0.0126165   0.0137908   239.3311995   0.0125953   119.8952169   79.9301446   0.0004825   240.0739202   0.0126126   0.0137923   240.4962802   0.0125916   
05701   239.5417289   0.0126165   0.013793   239.7638964   0.0125954   120.1112225   80.0741483   0.0004832   240.51246   0.0126126   0.0137945   240.9334878   0.0125916   
05702   239.9440645   0.0126167   0.0137953   240.1675754   0.0125956   120.3132895   80.2088596   0.0004838   240.7791935   0.0126135   0.0137967   241.2126413   0.0125925   
05703   240.3766204   0.0126168   0.0137975   240.6012809   0.0125956   120.5299102   80.3532735   0.0004845   241.211142   0.0126135   0.0137989   241.6345314   0.0125925   
05704   240.8083253   0.0126168   0.0137997   241.0341403   0.0125957   120.7460047   80.4973365   0.0004851   241.585319   0.0126138   0.0138011   242.0130604   0.0125928   
05705   241.2257965   0.0126169   0.0138019   241.4528959   0.0125958   120.9551746   80.6367831   0.0004858   242.0260488   0.0126138   0.0138033   242.4575087   0.0125928   
05706   241.6630759   0.0126169   0.0138041   241.8912802   0.0125958   121.1740988   80.7827325   0.0004865   242.4616297   0.0126138   0.0138055   242.8948129   0.0125928   
05707   242.0934289   0.0126169   0.0138062   242.322663   0.0125958   121.3894387   80.9262925   0.0004872   242.8963049   0.0126138   0.0138077   243.3309553   0.0125928   
05708   242.4574236   0.0126174   0.0138085   242.6871985   0.0125963   121.571461   81.0476406   0.0004877   243.3503949   0.0126138   0.0138099   243.7872694   0.0125928   
05709   242.8872307   0.0126174   0.0138107   243.1181738   0.0125963   121.7866945   81.1911297   0.0004884   243.7039402   0.0126142   0.0138121   244.1577745   0.0125932   
05710   234.0944668   0.0126627   0.0138119   234.3454256   0.0126415   117.4064207   78.2709471   0.0004747   234.9684796   0.012663   0.0138172   235.4728587   0.0126419   
05711   234.5161168   0.0126628   0.0138141   234.7697187   0.0126416   117.6182928   78.4121952   0.0004754   235.3990182   0.012663   0.0138194   235.9065338   0.0126419   
05712   234.9506469   0.0126628   0.0138163   235.205025   0.0126416   117.8357141   78.5571427   0.000476   235.8328775   0.012663   0.0138216   236.3417993   0.0126419   
05713   235.3857485   0.0126628   0.0138185   235.641224   0.0126416   118.0535857   78.7023904   0.0004767   236.2667116   0.012663   0.0138237   236.7771828   0.0126419   
05714   235.8213921   0.0126628   0.0138206   236.077997   0.0126416   118.2716725   78.8477816   0.0004774   236.6988403   0.012663   0.0138259   237.2112357   0.0126419   
05715   236.2564022   0.0126628   0.0138228   236.5143548   0.0126416   118.4895673   78.9930449   0.0004781   237.1338269   0.012663   0.0138281   237.6480229   0.0126419   
05716   236.6930764   0.0126628   0.013825   236.9521379   0.0126416   118.7081764   79.1387843   0.0004788   237.5689929   0.012663   0.0138302   238.0848725   0.0126419   
05717   237.121997   0.0126628   0.0138272   237.3816894   0.0126416   118.9225886   79.2817258   0.0004794   237.9973947   0.012663   0.0138324   238.5140919   0.0126419   
05718   237.5579633   0.0126628   0.0138293   237.8184144   0.0126416   119.140698   79.427132   0.0004801   238.430379   0.012663   0.0138346   238.9489161   0.0126419   
05719   237.9925432   0.0126628   0.0138315   238.2539864   0.0126416   119.35821   79.57214   0.0004808   238.8635624   0.012663   0.0138367   239.3835539   0.0126419   
05720   238.4081133   0.0126628   0.0138336   238.6697945   0.0126416   119.5657136   79.7104757   0.0004814   239.2833339   0.012663   0.0138388   239.8025792   0.0126419   
05721   238.8401259   0.0126628   0.0138358   239.1032377   0.0126416   119.7821831   79.8547887   0.0004821   239.7173313   0.012663   0.013841   240.2385639   0.0126419   
05722   239.2765056   0.0126628   0.013838   239.5406706   0.0126416   120.0006473   80.0004315   0.0004828   240.150598   0.012663   0.0138432   240.6735024   0.0126419   
05723   239.7097148   0.0126628   0.0138402   239.9746527   0.0126416   120.2173826   80.1449217   0.0004835   240.5838341   0.012663   0.0138453   241.1081364   0.0126419   
05724   240.029861   0.0126635   0.0138424   240.3053379   0.0126423   120.3826734   80.2551156   0.000484   240.9719353   0.012663   0.0138473   241.5041025   0.0126419   
05725   240.4654363   0.0126635   0.0138446   240.7420363   0.0126423   120.6007746   80.4005164   0.0004847   241.4065866   0.012663   0.0138495   241.9403976   0.0126419   
05726   240.9020377   0.0126635   0.0138468   241.1796921   0.0126423   120.8193429   80.5462286   0.0004854   241.8416335   0.012663   0.0138517   242.3770717   0.0126419   
05727   241.3222559   0.0126635   0.0138489   241.5992868   0.0126423   121.0288491   80.6858994   0.000486   242.2672737   0.012663   0.0138538   242.8028917   0.0126419   
05728   241.7535923   0.0126635   0.0138511   242.032671   0.0126423   121.2451994   80.830133   0.0004867   242.7004459   0.012663   0.013856   243.2376692   0.0126419   
05729   242.1833654   0.0126636   0.0138533   242.4636378   0.0126423   121.4604202   80.9736135   0.0004874   243.1330901   0.012663   0.0138581   243.6716766   0.0126419   
05730   242.612878   0.0126636   0.0138555   242.8944614   0.0126424   121.6755388   81.1170259   0.0004881   243.5689379   0.012663   0.0138603   244.1092362   0.0126419   
05731   242.8825   0.012664   0.0138572   243.1629879   0.0126428   121.8092572   81.2061715   0.0004885   243.9148233   0.012663   0.013862   244.4485605   0.0126419   
05732   243.3007053   0.0126641   0.0138594   243.5825876   0.0126429   122.0187954   81.3458636   0.0004891   244.3353272   0.0126632   0.0138643   244.8688399   0.0126421   
05733   237.6361928   0.0127041   0.0138709   237.8930601   0.0126828   119.1783025   79.4522017   0.0004802   238.7964855   0.0127025   0.0138759   239.3330773   0.0126814   
05734   238.0734411   0.0127041   0.0138731   238.3314444   0.0126828   119.3972263   79.5981508   0.0004809   239.2320389   0.0127025   0.0138781   239.7703814   0.0126814   
05735   238.4973792   0.0127042   0.0138753   238.7568593   0.0126829   119.6097657   79.7398438   0.0004816   239.671635   0.0127025   0.0138803   240.2115808   0.0126814   
05736   238.9346303   0.0127042   0.0138775   239.1952436   0.0126829   119.8286892   79.8857928   0.0004823   240.1071908   0.0127025   0.0138824   240.648885   0.0126814   
05737   239.3690948   0.0127042   0.0138797   239.6309193   0.0126829   120.0462894   80.0308596   0.000483   240.5443978   0.0127025   0.0138846   241.0861077   0.0126814   
05738   239.8063482   0.0127042   0.0138819   240.0693036   0.0126829   120.2652132   80.1768088   0.0004836   240.9799551   0.0127025   0.0138868   241.5234115   0.0126814   
05739   240.2368521   0.0127042   0.0138841   240.5012081   0.012683   120.4809035   80.3206024   0.0004843   241.4175098   0.0127025   0.013889   241.9627136   0.0126814   
05740   240.6690795   0.0127043   0.0138863   240.9347282   0.012683   120.6973957   80.4649305   0.000485   241.854571   0.0127025   0.0138912   242.4015031   0.0126814   
05741   241.0863323   0.0127044   0.0138885   241.3534453   0.0126831   120.9064274   80.604285   0.0004856   242.2961904   0.0127025   0.0138934   242.8449148   0.0126814   
05742   241.5228689   0.0127044   0.0138907   241.7911131   0.0126831   121.1249773   80.7499849   0.0004863   242.7319738   0.0127025   0.0138956   243.2824481   0.0126814   
05743   241.9423898   0.0127045   0.0138929   242.2121636   0.0126832   121.3352717   80.8901811   0.000487   243.1400858   0.0127027   0.0138978   243.692824   0.0126816   
05744   242.3265006   0.0127048   0.0138952   242.5982362   0.0126836   121.5279982   81.0186655   0.0004876   243.5021281   0.0127031   0.0139001   244.0581511   0.012682   
05745   242.7578145   0.0127049   0.0138974   243.0307739   0.0126836   121.7440084   81.1626723   0.0004883   243.9395016   0.0127031   0.0139022   244.4971752   0.012682   
05746   243.1857305   0.0127049   0.0138996   243.4593889   0.0126837   121.9580972   81.3053981   0.0004889   244.3766   0.0127032   0.0139044   244.9268403   0.012682   
05747   243.6135032   0.012705   0.0139017   243.8884753   0.0126837   122.1723372   81.4482248   0.0004896   244.8084621   0.0127032   0.0139066   245.3593782   0.012682   
05748   244.0052077   0.0127052   0.0139039   244.2810133   0.0126839   122.3790694   81.5860463   0.0004903   245.2369734   0.0127032   0.0139087   245.786684   0.012682   
05749   244.3711866   0.0127056   0.0139062   244.6490838   0.0126844   122.5624901   81.7083267   0.0004908   245.5598866   0.0127038   0.013911   246.1206581   0.0126827   
05750   244.678914   0.0127061   0.0139082   244.9571   0.0126848   122.6909996   81.7939998   0.0004915   245.7057914   0.012705   0.013913   246.2950461   0.0126839   
05751   237.4928245   0.0127558   0.0139218   237.7297072   0.0127345   119.0937928   79.3958619   0.0004803   237.8796852   0.0127581   0.0139269   238.4966592   0.0127369   
05752   237.9300427   0.0127558   0.013924   238.1680915   0.0127345   119.3127166   79.541811   0.000481   238.3152006   0.0127581   0.0139291   238.9339633   0.0127369   
05753   238.3663561   0.0127558   0.0139262   238.6055772   0.0127345   119.5311939   79.6874626   0.0004817   238.7513132   0.0127581   0.0139313   239.3710129   0.0127369   
05754   238.8035766   0.0127558   0.0139284   239.0439615   0.0127345   119.7501183   79.8334122   0.0004823   239.1868312   0.0127581   0.0139335   239.8083173   0.0127369   
05755   239.237602   0.0127559   0.0139306   239.4792273   0.0127345   119.9674929   79.9783286   0.000483   239.6232781   0.0127581   0.0139356   240.2465979   0.0127369   
05756   239.6588081   0.012756   0.0139328   239.9018291   0.0127347   120.1785084   80.1190056   0.0004837   240.0636236   0.0127581   0.0139379   240.6887348   0.0127369   
05757   240.0960328   0.012756   0.013935   240.3402134   0.0127347   120.3974323   80.2649549   0.0004844   240.4991451   0.0127581   0.01394   241.1260388   0.0127369   
05758   240.5323539   0.012756   0.0139372   240.7777116   0.0127347   120.6159117   80.4106078   0.0004851   240.9353218   0.0127581   0.0139422   241.5631402   0.0127369   
05759   240.9695809   0.012756   0.0139394   241.216096   0.0127347   120.8348357   80.5565571   0.0004857   241.3708456   0.0127581   0.0139444   242.0004446   0.0127369   
05760   241.3987978   0.012756   0.0139416   241.646657   0.0127347   121.0498529   80.6999019   0.0004864   241.8087652   0.0127581   0.0139466   242.4401376   0.0127369   
05761   241.8360274   0.012756   0.0139438   242.0850413   0.0127347   121.2687767   80.8458511   0.0004871   242.2442915   0.0127581   0.0139488   242.8774417   0.0127369   
05762   242.2674366   0.0127561   0.013946   242.5177005   0.0127347   121.484846   80.9898973   0.0004878   242.6817196   0.0127581   0.013951   243.3162893   0.0127369   
05763   242.7020008   0.0127561   0.0139482   242.9534598   0.0127348   121.7024576   81.1349717   0.0004885   243.1180145   0.0127581   0.0139532   243.7544124   0.0127369   
05764   243.1140792   0.0127562   0.0139504   243.3672166   0.0127349   121.9090864   81.2727243   0.0004891   243.5619778   0.0127581   0.0139554   244.1976945   0.0127369   
05765   243.5447734   0.0127563   0.0139526   243.7991414   0.012735   122.1248035   81.4165357   0.0004898   243.972575   0.0127583   0.0139576   244.614751   0.0127371   
05766   236.2433379   0.0128068   0.0139666   236.4895777   0.0127855   118.4735842   78.9823895   0.0004783   236.415714   0.0128101   0.0139717   237.0771358   0.0127889   
05767   236.6796558   0.0128068   0.0139688   236.927069   0.0127855   118.6920618   79.1280412   0.000479   236.8515334   0.0128101   0.0139739   237.5147066   0.0127889   
05768   237.1168949   0.0128068   0.013971   237.3654533   0.0127855   118.9109859   79.2739906   0.0004797   237.2870731   0.0128101   0.013976   237.9520103   0.0127889   
05769   237.5475696   0.0128069   0.0139732   237.7974198   0.0127855   119.1267129   79.4178086   0.0004804   237.7246247   0.0128101   0.0139782   238.3912199   0.0127889   
05770   237.9816992   0.0128069   0.0139754   238.2327869   0.0127855   119.344133   79.5627554   0.0004811   238.1610862   0.0128101   0.0139804   238.8294499   0.0127889   
05771   238.4189421   0.0128069   0.0139775   238.6711712   0.0127855   119.5630569   79.7087046   0.0004818   238.5966295   0.0128101   0.0139826   239.2667537   0.0127889   
05772   238.8518586   0.0128069   0.0139797   239.105374   0.0127856   119.7798995   79.8532663   0.0004824   239.0334927   0.0128101   0.0139848   239.7052751   0.0127889   
05773   239.288393   0.0128069   0.0139819   239.5430716   0.0127856   119.9984811   79.9989874   0.0004831   239.4692462   0.0128101   0.013987   240.1427887   0.0127889   
05774   239.7245336   0.0128069   0.0139841   239.9803756   0.0127856   120.2168643   80.1445762   0.0004838   239.9051033   0.0128101   0.0139892   240.5804491   0.0127889   
05775   240.1608694   0.0128069   0.0139863   240.417866   0.0127856   120.435342   80.290228   0.0004845   240.3408103   0.0128101   0.0139913   241.018181   0.0127889   
05776   240.5974147   0.0128069   0.0139885   240.8555718   0.0127856   120.6539253   80.4359502   0.0004852   240.7765607   0.0128101   0.0139935   241.4557011   0.0127889   
05777   241.0325146   0.0128069   0.0139907   241.2918613   0.0127856   120.8717974   80.5811982   0.0004859   241.2128342   0.0128101   0.0139957   241.8935316   0.0127889   
05778   241.4594752   0.012807   0.0139929   241.7202697   0.0127857   121.0857372   80.7238248   0.0004865   241.649495   0.0128101   0.0139979   242.3353186   0.0127889   
05779   241.8879556   0.0128071   0.0139951   242.1501621   0.0127857   121.3004202   80.8669468   0.0004872   242.0874361   0.0128101   0.0140001   242.775051   0.0127889   
05780   242.3252098   0.0128071   0.0139973   242.5885464   0.0127857   121.5193443   81.0128962   0.0004879   242.5229912   0.0128101   0.0140023   243.212355   0.0127889   
05781   242.7492246   0.0128071   0.0139995   243.0146331   0.0127858   121.7321169   81.1547446   0.0004885   242.9603741   0.0128101   0.0140045   243.6515135   0.0127889   
05782   243.1721951   0.0128072   0.0140017   243.4381725   0.0127859   121.9437647   81.2958431   0.0004892   243.3983104   0.0128101   0.0140067   244.0897778   0.0127889   
05783   243.6041984   0.0128072   0.0140039   243.8713291   0.0127859   122.1600743   81.4400495   0.0004899   243.834539   0.0128101   0.0140088   244.5278462   0.0127889   
05784   243.9744445   0.0128077   0.0140062   244.2432817   0.0127863   122.3459401   81.56396   0.0004905   244.2900634   0.0128101   0.0140111   244.9761863   0.0127889   
05785   235.8325657   0.0128444   0.0140021   236.1055073   0.012823   118.2858143   78.8572095   0.0004777   235.7082579   0.0128519   0.0140099   236.4605968   0.0128305   
05786   236.2651409   0.0128444   0.0140042   236.539486   0.012823   118.5024592   79.0016394   0.0004784   236.1388854   0.0128519   0.014012   236.8931146   0.0128305   
05787   236.700578   0.0128444   0.0140064   236.9760794   0.012823   118.7203999   79.1469333   0.0004791   236.5734188   0.0128519   0.0140142   237.3293797   0.0128305   
05788   237.1207406   0.0128445   0.0140086   237.3993284   0.0128231   118.9315856   79.2877238   0.0004798   236.9961872   0.0128519   0.0140164   237.7477051   0.0128306   
05789   237.5570363   0.0128445   0.0140108   237.8369311   0.0128231   119.150116   79.4334106   0.0004805   237.431481   0.0128519   0.0140186   238.1847618   0.0128306   
05790   237.9910336   0.0128446   0.014013   238.2718801   0.0128231   119.3672311   79.578154   0.0004811   237.8672166   0.0128519   0.0140208   238.6223624   0.0128306   
05791   238.4266305   0.0128446   0.0140152   238.7086222   0.0128231   119.5852934   79.7235289   0.0004818   238.2998552   0.0128519   0.0140229   239.0566925   0.0128306   
05792   238.86184   0.0128446   0.0140174   239.1455748   0.0128231   119.8034282   79.8689522   0.0004825   238.7348985   0.0128519   0.0140251   239.4934455   0.0128306   
05793   239.2990685   0.0128446   0.0140196   239.5839592   0.0128231   120.022352   80.0149013   0.0004832   239.1704333   0.0128519   0.0140273   239.9307495   0.0128306   
05794   239.7350939   0.0128446   0.0140217   240.020839   0.0128231   120.2405178   80.1603452   0.0004839   239.6039165   0.0128519   0.0140295   240.3661273   0.0128306   
05795   240.1719646   0.0128446   0.0140239   240.4588715   0.0128231   120.4592606   80.3061738   0.0004845   240.0385251   0.0128519   0.0140316   240.8026207   0.0128306   
05796   240.5779346   0.0128447   0.0140261   240.8667066   0.0128233   120.6629197   80.4419465   0.0004852   240.4622984   0.0128519   0.0140338   241.227941   0.0128306   
05797   241.0033166   0.0128448   0.0140283   241.2936127   0.0128234   120.8764165   80.5842776   0.0004859   240.9024038   0.0128519   0.014036   241.6699591   0.0128306   
05798   241.4265389   0.0128449   0.0140305   241.7179322   0.0128234   121.0884771   80.7256514   0.0004865   241.328738   0.0128519   0.0140381   242.0962872   0.0128306   
05799   241.8327773   0.0128449   0.0140325   242.1245328   0.0128234   121.2914299   80.8609533   0.0004872   241.7369358   0.0128519   0.0140401   242.5041779   0.0128306   
05800   242.2700151   0.0128449   0.0140347   242.5629172   0.0128234   121.5103538   81.0069026   0.0004878   242.1724781   0.0128519   0.0140423   242.9414819   0.0128306   
05801   242.7049901   0.0128449   0.0140369   242.999073   0.0128234   121.7280792   81.1520528   0.0004885   242.6072702   0.0128519   0.0140445   243.3779876   0.0128306   
05802   243.0699175   0.0128453   0.0140392   243.3682834   0.0128238   121.9127475   81.275165   0.0004891   243.0441926   0.0128519   0.0140467   243.820229   0.0128306   
05803   243.3349114   0.0128462   0.0140414   243.6409089   0.0128248   122.0487311   81.3658207   0.0004895   243.4218167   0.0128522   0.0140488   244.2087911   0.0128308   
05804   243.7662426   0.0128463   0.0140436   244.0731158   0.0128248   122.2643869   81.5095912   0.0004902   243.8614647   0.0128522   0.014051   244.6477145   0.0128308   
05805   236.2489442   0.0128984   0.014058   236.5199115   0.0128769   118.4910917   78.9940612   0.0004784   236.3120134   0.0129048   0.0140655   236.9541179   0.0128834   
05806   236.6861436   0.0128984   0.0140602   236.9582958   0.0128769   118.7100158   79.1400105   0.0004791   236.7475037   0.0129048   0.0140677   237.3914222   0.0128834   
05807   237.1021452   0.0128985   0.0140624   237.3760162   0.012877   118.9185398   79.2790265   0.0004797   237.1648592   0.0129049   0.0140699   237.8084822   0.0128835   
05808   237.5393483   0.0128985   0.0140646   237.8144005   0.012877   119.1374637   79.4249758   0.0004804   237.6003527   0.0129049   0.0140721   238.2457863   0.0128835   
05809   237.9690064   0.0128986   0.0140668   238.2453599   0.0128771   119.3527007   79.5684671   0.0004811   238.0382322   0.0129049   0.0140743   238.6838203   0.0128835   
05810   238.3923602   0.0128987   0.014069   238.6700541   0.0128771   119.5648231   79.7098821   0.0004818   238.4767166   0.0129049   0.0140765   239.1266284   0.0128835   
05811   238.826876   0.0128987   0.0140712   239.1057674   0.0128772   119.7824716   79.8549811   0.0004824   238.9130101   0.0129049   0.0140787   239.564765   0.0128835   
05812   239.2558736   0.0128987   0.0140734   239.5360413   0.0128772   119.9974074   79.9982716   0.0004831   239.3508443   0.0129049   0.0140809   240.0046017   0.0128835   
05813   239.6913878   0.0128987   0.0140756   239.972781   0.0128772   120.2155174   80.1436782   0.0004838   239.7868511   0.0129049   0.0140831   240.4424008   0.0128835   
05814   240.126636   0.0128987   0.0140778   240.4092461   0.0128772   120.4334292   80.2889528   0.0004845   240.22294   0.0129049   0.0140852   240.880299   0.0128835   
05815   240.5588303   0.0128988   0.01408   240.8427467   0.0128773   120.6498937   80.4332625   0.0004851   240.6599155   0.0129049   0.0140874   241.3191087   0.0128835   
05816   240.8489688   0.0128997   0.0140824   241.1367175   0.0128782   120.7969541   80.5313028   0.0004856   241.1384802   0.0129049   0.0140898   241.8014437   0.0128835   
05817   241.2810936   0.0128998   0.0140846   241.5700721   0.0128782   121.0134205   80.6756137   0.0004863   241.5755357   0.0129049   0.014092   242.2402606   0.0128835   
05818   241.7176869   0.0128998   0.0140868   242.0078143   0.0128782   121.2320374   80.8213582   0.000487   242.0112434   0.0129049   0.0140942   242.6777582   0.0128835   
05819   242.1510062   0.0128998   0.014089   242.4424111   0.0128783   121.4491144   80.9660763   0.0004876   242.4479451   0.0129049   0.0140964   243.1161879   0.0128835   
05820   242.5812594   0.0128998   0.0140912   242.8738104   0.0128783   121.6644498   81.1096332   0.0004883   242.8867149   0.0129049   0.0140986   243.5519547   0.0128835   
05821   243.0073027   0.0128999   0.0140934   243.301232   0.0128784   121.8778979   81.251932   0.000489   243.2252762   0.0129054   0.0141008   243.900617   0.012884   
05822   243.4346343   0.0129   0.0140956   243.7297976   0.0128784   122.0919456   81.3946304   0.0004897   243.6637262   0.0129054   0.014103   244.3410426   0.012884   
05823   243.8479222   0.0129001   0.0140978   244.145046   0.0128786   122.2993762   81.5329175   0.0004903   244.1033197   0.0129054   0.0141052   244.7822709   0.012884   
05824   244.2186301   0.0129003   0.0140998   244.5082743   0.0128787   122.4809592   81.6539728   0.0004909   244.5163533   0.0129054   0.0141073   245.1909806   0.012884   
05825   244.5682842   0.0129008   0.0141021   244.858927   0.0128793   122.6554429   81.7702953   0.0004914   244.8494778   0.0129061   0.0141096   245.512921   0.0128847   
05826   241.6041746   0.0129017   0.0140881   241.8772865   0.0128801   121.1695127   80.7796751   0.0004868   242.0707113   0.0129061   0.0140956   242.6995094   0.0128847   
05827   241.9866095   0.012902   0.0140903   242.2617365   0.0128805   121.3616915   80.9077943   0.0004874   242.5189826   0.0129061   0.0140979   243.1515502   0.0128847   
05828   242.4081396   0.0129021   0.0140925   242.6846233   0.0128806   121.5727867   81.0485245   0.000488   242.9559272   0.0129061   0.0141001   243.5903376   0.0128847   
05829   242.8158182   0.0129022   0.0140947   243.0936881   0.0128807   121.7771417   81.1847611   0.0004887   243.3938251   0.0129061   0.0141023   244.0287679   0.0128847   
05830   243.2378911   0.0129023   0.0140969   243.5174757   0.0128807   121.9892909   81.3261939   0.0004893   243.8194519   0.0129061   0.0141044   244.4564417   0.0128847   
05831   239.1832836   0.0129316   0.0141058   239.4536787   0.01291   119.959179   79.972786   0.000483   239.4495864   0.0129373   0.0141135   239.9870275   0.0129159   
05832   239.603317   0.0129317   0.0141081   239.8751   0.0129101   120.1696575   80.113105   0.0004836   239.8920361   0.0129373   0.0141158   240.431807   0.0129159   
05833   240.039674   0.0129317   0.0141103   240.3126165   0.0129101   120.3881398   80.2587599   0.0004843   240.3280568   0.0129373   0.0141179   240.8692657   0.0129159   
05834   240.4738754   0.0129317   0.0141124   240.7480264   0.0129101   120.6055516   80.4037011   0.000485   240.7645597   0.0129373   0.0141201   241.3075103   0.0129159   
05835   240.8966665   0.0129318   0.0141147   241.1721831   0.0129102   120.8172718   80.5448479   0.0004857   241.2046832   0.0129373   0.0141223   241.7489301   0.0129159   
05836   241.3331061   0.0129318   0.0141168   241.6097933   0.0129102   121.0358093   80.6905396   0.0004864   241.6402872   0.0129373   0.0141245   242.1863725   0.0129159   
05837   241.7661767   0.0129318   0.014119   242.0442   0.0129103   121.2527528   80.8351685   0.000487   242.077211   0.0129373   0.0141267   242.6252865   0.0129159   
05838   242.2006593   0.0129318   0.0141212   242.4798082   0.0129103   121.4702687   80.9801791   0.0004877   242.5150359   0.0129373   0.0141289   243.0641062   0.0129159   
05839   242.6378987   0.0129318   0.0141234   242.9181925   0.0129103   121.6891926   81.1261284   0.0004884   242.9505538   0.0129373   0.0141311   243.5014108   0.0129159   
05840   243.0582704   0.0129319   0.0141256   243.3417308   0.0129104   121.900588   81.2670587   0.0004891   243.382725   0.0129373   0.0141332   243.9359612   0.0129159   
05841   243.4644407   0.0129321   0.0141279   243.7505905   0.0129106   122.1045083   81.4030056   0.0004897   243.7060938   0.0129379   0.0141354   244.273651   0.0129164   
05842   243.878253   0.0129323   0.0141301   244.1663103   0.0129107   122.3119848   81.5413232   0.0004904   244.1470207   0.0129379   0.0141377   244.716207   0.0129164   
05843   244.294489   0.0129324   0.0141323   244.5837986   0.0129109   122.5206472   81.6804315   0.000491   244.5884453   0.0129379   0.0141399   245.1619024   0.0129164   
05844   244.7229152   0.0129324   0.0141345   245.0136742   0.0129109   122.7353472   81.8235648   0.0004917   245.0238183   0.0129379   0.0141421   245.5993656   0.0129164   
05845   236.5551374   0.0129887   0.0141498   236.8147943   0.0129671   118.5254769   79.0169846   0.0004789   237.4329722   0.0129914   0.0141575   237.9866355   0.0129699   
05846   236.9923488   0.0129887   0.014152   237.2531787   0.0129671   118.744401   79.162934   0.0004796   237.8684755   0.0129914   0.0141596   238.4239396   0.0129699   
05847   237.4227122   0.0129888   0.0141542   237.6849102   0.0129672   118.9600061   79.3066707   0.0004803   238.3060054   0.0129914   0.0141618   238.8633041   0.0129699   
05848   237.8583228   0.0129888   0.0141563   238.1217228   0.0129672   119.1781308   79.4520872   0.000481   238.7421308   0.0129914   0.014164   239.3008525   0.0129699   
05849   238.2921785   0.0129888   0.0141585   238.5568464   0.0129672   119.3954077   79.5969385   0.0004817   239.1786601   0.0129914   0.0141662   239.7391134   0.0129699   
05850   238.7253522   0.0129888   0.0141607   238.9912918   0.0129672   119.6123639   79.741576   0.0004823   239.6153603   0.0129914   0.0141684   240.177662   0.0129699   
05851   239.1524526   0.0129889   0.0141629   239.4198128   0.0129673   119.8263108   79.8842072   0.000483   240.0535943   0.0129914   0.0141706   240.6178873   0.0129699   
05852   239.5851459   0.0129889   0.0141651   239.8537584   0.0129673   120.043022   80.0286813   0.0004837   240.4900072   0.0129914   0.0141728   241.0569392   0.0129699   
05853   240.0214469   0.0129889   0.0141673   240.291258   0.0129673   120.2615023   80.1743349   0.0004844   240.9257728   0.0129914   0.014175   241.494536   0.0129699   
05854   240.4485854   0.012989   0.0141695   240.7197916   0.0129674   120.4755465   80.317031   0.000485   241.2638452   0.0129918   0.0141772   241.8467879   0.0129704   
05855   240.8761536   0.012989   0.0141717   241.1487527   0.0129674   120.6897639   80.4598426   0.0004857   241.7022545   0.0129918   0.0141794   242.2869756   0.0129704   
05856   241.3077637   0.0129891   0.0141739   241.5815912   0.0129675   120.9059058   80.6039372   0.0004864   242.139493   0.0129918   0.0141816   242.7259923   0.0129704   
05857   241.7438706   0.0129891   0.0141761   242.0188715   0.0129675   121.1242841   80.7495227   0.0004871   242.5754047   0.0129918   0.0141837   243.1634706   0.0129704   
05858   242.0943583   0.0129896   0.0141784   242.3717324   0.012968   121.3002667   80.8668445   0.0004876   242.6917689   0.0129936   0.014186   243.2687234   0.0129721   
05859   242.5315898   0.0129896   0.0141806   242.8101168   0.012968   121.5191906   81.0127937   0.0004883   243.1272966   0.0129936   0.0141882   243.7060273   0.0129721   
05860   242.9535409   0.0129897   0.0141828   243.2335428   0.0129681   121.7306446   81.1537631   0.000489   243.5677086   0.0129936   0.0141904   244.147249   0.0129721   
05861   243.3747803   0.0129898   0.0141851   243.6562749   0.0129682   121.9417518   81.2945012   0.0004896   244.0075263   0.0129936   0.0141926   244.5900078   0.0129721   
05862   243.7052808   0.0129905   0.0141874   243.9891205   0.0129689   122.1078493   81.4052328   0.0004901   244.4751408   0.0129936   0.014195   245.0595176   0.0129721   
05863   244.1396144   0.0129905   0.0141896   244.4246618   0.0129689   122.325375   81.55025   0.0004908   244.9116336   0.0129936   0.0141972   245.4975638   0.0129721   
05864   244.5512261   0.0129907   0.0141918   244.8377321   0.0129691   122.5318426   81.6878951   0.0004915   245.3177317   0.0129938   0.0141994   245.9120375   0.0129723   
05865   244.9851762   0.0129907   0.014194   245.2727884   0.0129691   122.749121   81.8327473   0.0004922   245.7555247   0.0129938   0.0142016   246.3474814   0.0129723   
05866   245.3889719   0.0129908   0.0141962   245.67808   0.0129692   122.9046493   81.9364329   0.0004929   246.1808542   0.0129938   0.0142037   246.7747034   0.0129723   
05867   235.4739185   0.0130586   0.0142141   235.7269147   0.0130369   117.9346845   78.623123   0.0004774   236.1054036   0.0130624   0.0142219   236.704989   0.0130409   
05868   235.9103694   0.0130586   0.0142163   236.1645672   0.0130369   118.1532685   78.7688457   0.000478   236.5257188   0.0130625   0.0142241   237.1253386   0.013041   
05869   236.3475778   0.0130586   0.0142185   236.6029515   0.0130369   118.3721923   78.9147949   0.0004787   236.961221   0.0130625   0.0142263   237.5626426   0.013041   
05870   236.7847873   0.0130586   0.0142207   237.0413359   0.0130369   118.5911164   79.0607443   0.0004794   237.3967249   0.0130625   0.0142285   237.9999469   0.013041   
05871   237.2219982   0.0130586   0.0142229   237.4797202   0.0130369   118.8100403   79.2066935   0.0004801   237.8322291   0.0130625   0.0142307   238.4372507   0.013041   
05872   237.6581116   0.0130586   0.0142251   237.9170373   0.0130369   119.028434   79.3522893   0.0004808   238.2680796   0.0130625   0.0142328   238.8748578   0.013041   
05873   238.0819472   0.0130586   0.0142273   238.3426683   0.013037   119.2408551   79.4939034   0.0004814   238.7074425   0.0130625   0.014235   239.3159351   0.013041   
05874   238.5159526   0.0130587   0.0142295   238.7779483   0.013037   119.4581708   79.6387805   0.0004821   239.1438976   0.0130625   0.0142372   239.7541679   0.013041   
05875   238.9531694   0.0130587   0.0142317   239.2163327   0.013037   119.6770946   79.7847297   0.0004828   239.5794071   0.0130625   0.0142394   240.191472   0.013041   
05876   239.3876641   0.0130587   0.0142339   239.6520348   0.0130371   119.8947119   79.929808   0.0004835   240.0165036   0.0130625   0.0142416   240.6278507   0.013041   
05877   239.8248834   0.0130587   0.0142361   240.0904192   0.0130371   120.1136361   80.0757574   0.0004842   240.4520163   0.0130625   0.0142438   241.0651549   0.013041   
05878   240.262104   0.0130587   0.0142383   240.5288035   0.0130371   120.3325605   80.221707   0.0004849   240.8875301   0.0130625   0.014246   241.502459   0.013041   
05879   240.6993257   0.0130587   0.0142404   240.9671878   0.0130371   120.5514842   80.3676561   0.0004855   241.323045   0.0130625   0.0142481   241.9397632   0.013041   
05880   241.1356003   0.0130587   0.0142426   241.404656   0.0130371   120.769966   80.5133107   0.0004862   241.7586107   0.0130625   0.0142503   242.3774336   0.013041   
05881   241.5660852   0.0130587   0.0142448   241.836358   0.0130371   120.9855685   80.6570457   0.0004869   242.1965245   0.0130625   0.0142525   242.8169968   0.013041   
05882   241.992015   0.0130588   0.014247   242.263689   0.0130372   121.1990767   80.7993844   0.0004876   242.6353362   0.0130625   0.0142547   243.2576359   0.013041   
05883   242.4262717   0.0130588   0.0142492   242.6991654   0.0130372   121.4164772   80.9443181   0.0004883   243.0710285   0.0130625   0.0142569   243.6923279   0.013041   
05884   242.8630396   0.0130588   0.0142514   243.1371028   0.0130372   121.6351703   81.0901135   0.0004889   243.5060258   0.0130625   0.0142591   244.1291294   0.013041   
05885   243.2994539   0.0130588   0.0142536   243.5746831   0.0130372   121.8537015   81.235801   0.0004896   243.9418725   0.0130625   0.0142613   244.5664927   0.013041   
05886   243.7178928   0.013059   0.0142558   243.9946061   0.0130373   122.0635419   81.3756946   0.0004903   244.3829538   0.0130625   0.0142635   245.0085413   0.013041   
05887   244.1521755   0.013059   0.014258   244.4301134   0.0130373   122.2810718   81.5207146   0.000491   244.8195642   0.0130625   0.0142657   245.4461694   0.013041   
05888   244.5881185   0.013059   0.0142602   244.8672344   0.0130373   122.4993918   81.6662612   0.0004916   245.25551   0.0130625   0.0142679   245.8838164   0.013041   
05889   245.0166278   0.013059   0.0142624   245.2970931   0.0130374   122.714098   81.8093987   0.0004923   245.6933951   0.0130625   0.01427   246.3235581   0.013041   
05890   245.44599   0.0130591   0.0142646   245.7279231   0.0130374   122.9292086   81.9528057   0.000493   246.1277644   0.0130625   0.0142722   246.7595904   0.013041   
05891   245.8172196   0.0130595   0.0142669   246.1015476   0.0130378   123.1159706   82.0773137   0.0004936   246.5562831   0.0130626   0.0142745   247.1831685   0.0130411   
05892   246.1851282   0.0130598   0.0142691   246.4710238   0.0130382   123.3114378   82.2076252   0.0004943   246.8299322   0.0130634   0.0142767   247.4748038   0.0130419   
05893   246.5066697   0.0130601   0.014271   246.795283   0.0130385   123.5147891   82.3431927   0.0004972   247.0483312   0.0130642   0.0142785   247.7031515   0.0130426   
05894   246.7513314   0.0130613   0.0142734   247.0426054   0.0130397   123.6386806   82.425787   0.0004976   247.1829346   0.0130658   0.014281   247.8961843   0.0130442   
05895   237.8132783   0.0131227   0.0142899   238.0696313   0.013101   119.1567176   79.4378117   0.0004835   237.9081435   0.013129   0.0142976   238.5981537   0.0131074   
05896   238.2463841   0.0131227   0.0142921   238.5040835   0.013101   119.373756   79.582504   0.0004842   238.3447942   0.013129   0.0142998   239.0367079   0.0131074   
05897   238.6826782   0.0131227   0.0142943   238.9415981   0.013101   119.592226   79.7281507   0.0004849   238.7429844   0.0131292   0.014302   239.4424581   0.0131076   
05898   239.1011518   0.0131228   0.0142965   239.3619248   0.0131011   119.802101   79.8680674   0.0004856   239.1486133   0.0131294   0.0143042   239.8441845   0.0131078   
05899   239.5383633   0.0131228   0.0142987   239.8003091   0.0131011   120.0210249   80.0140166   0.0004862   239.5841269   0.0131294   0.0143064   240.2814887   0.0131078   
05900   239.9722318   0.0131229   0.0143009   240.2354681   0.0131012   120.2383818   80.1589212   0.0004869   240.0205977   0.0131294   0.0143086   240.7198037   0.0131078   
05901   240.4059406   0.0131229   0.0143031   240.6704469   0.0131012   120.4556534   80.3037689   0.0004876   240.4571186   0.0131294   0.0143108   241.1581701   0.0131078   
05902   240.8418202   0.0131229   0.0143053   241.1075366   0.0131012   120.6739234   80.4492823   0.0004883   240.8930283   0.0131294   0.014313   241.5958748   0.0131078   
05903   241.2790369   0.0131229   0.0143075   241.5459209   0.0131012   120.8928476   80.5952318   0.000489   241.3285468   0.0131294   0.0143151   242.0331789   0.0131078   
05904   241.7153587   0.0131229   0.0143097   241.9834289   0.0131012   121.1113474   80.7408983   0.0004896   241.7658427   0.0131294   0.0143173   242.4682436   0.0131078   
05905   242.1367748   0.013123   0.0143119   242.4063783   0.0131013   121.3225999   80.8817332   0.0004903   242.2081015   0.0131294   0.0143195   242.9063986   0.0131078   
05906   242.5739959   0.013123   0.0143141   242.8447626   0.0131013   121.5415243   81.0276829   0.000491   242.643625   0.0131294   0.0143217   243.3437024   0.0131078   
05907   243.0068128   0.013123   0.0143163   243.2788044   0.0131013   121.7582198   81.1721465   0.0004917   243.0804644   0.0131294   0.0143239   243.7823221   0.0131078   
05908   243.433026   0.0131231   0.0143185   243.706462   0.0131014   121.971669   81.314446   0.0004923   243.5196288   0.0131294   0.0143261   244.2223798   0.0131078   
05909   243.8406274   0.0131233   0.0143207   244.1158933   0.0131016   122.1760857   81.4507238   0.000493   243.9639035   0.0131294   0.0143283   244.6686046   0.0131078   
05910   244.2202375   0.0131236   0.014323   244.4977759   0.013102   122.366883   81.577922   0.0004936   244.4174698   0.0131294   0.0143306   245.1210262   0.0131078   
05911   244.5799877   0.0131241   0.0143253   244.8598975   0.0131025   122.5477966   81.6985311   0.0004941   244.7626298   0.0131299   0.0143329   245.4768032   0.0131083   
05912   245.0095109   0.0131242   0.0143275   245.2907494   0.0131025   122.7630621   81.8420414   0.0004948   245.200449   0.0131299   0.0143351   245.9164183   0.0131083   
05913   245.3685154   0.0131247   0.0143298   245.6517256   0.013103   122.9436741   81.9624494   0.0004954   245.4185053   0.0131311   0.0143374   246.1468595   0.0131094   
05914   245.7937685   0.0131247   0.014332   246.0782595   0.013103   123.156751   82.1045006   0.0004961   245.8577484   0.0131311   0.0143396   246.5878141   0.0131094   
05915   246.2152472   0.0131248   0.0143342   246.501529   0.0131031   123.3680024   82.2453349   0.0004967   246.2960019   0.0131311   0.0143417   247.0271833   0.0131094   
05916   246.64659   0.0131249   0.0143364   246.9340758   0.0131032   123.5839817   82.3893211   0.0004974   246.7324577   0.0131311   0.0143439   247.4652881   0.0131094   
05917   247.0244682   0.0131252   0.0143386   247.3136997   0.0131035   123.7729922   82.5153281   0.000498   247.0878313   0.0131315   0.0143461   247.8185147   0.0131099   
05918   238.7524365   0.0131753   0.0143471   238.9912532   0.0131535   119.619606   79.746404   0.000485   239.0716944   0.0131827   0.0143568   239.5691805   0.0131611   
05919   239.180467   0.0131753   0.0143493   239.42076   0.0131536   119.8338152   79.8892101   0.0004857   239.5081251   0.0131827   0.014359   240.0079473   0.0131611   
05920   239.586128   0.0131755   0.0143516   239.8277454   0.0131538   120.0371681   80.0247788   0.0004863   239.6749363   0.0131841   0.0143612   240.1893925   0.0131624   
05921   240.0233494   0.0131755   0.0143538   240.2661297   0.0131538   120.2560923   80.1707282   0.000487   240.1104637   0.0131841   0.0143634   240.6266963   0.0131624   
05922   240.4526973   0.0131756   0.014356   240.6969156   0.0131538   120.4712059   80.3141373   0.0004877   240.5484406   0.0131841   0.0143656   241.0664423   0.0131624   
05923   240.8899215   0.0131756   0.0143582   241.1352999   0.0131538   120.6901305   80.460087   0.0004884   240.9839704   0.0131841   0.0143678   241.5037462   0.0131624   
05924   241.3230291   0.0131756   0.0143604   241.569599   0.0131539   120.9069414   80.6046276   0.000489   241.4075825   0.0131842   0.01437   241.9283241   0.0131625   
05925   241.7602558   0.0131756   0.0143625   242.0079834   0.0131539   121.1258656   80.750577   0.0004897   241.8431148   0.0131842   0.0143722   242.3656283   0.0131625   
05926   242.1974836   0.0131756   0.0143647   242.4463677   0.0131539   121.3447895   80.8965263   0.0004904   242.2786482   0.0131842   0.0143743   242.8029323   0.0131625   
05927   242.6307049   0.0131756   0.0143669   242.880906   0.0131539   121.5618643   81.0412428   0.0004911   242.6783269   0.0131843   0.0143765   243.2118584   0.0131627   
05928   243.0667972   0.0131756   0.0143691   243.3184343   0.0131539   121.780355   81.1869033   0.0004918   243.1135439   0.0131843   0.0143787   243.648882   0.0131627   
05929   243.499138   0.0131756   0.0143713   243.751102   0.0131539   121.9963377   81.3308918   0.0004924   243.5484253   0.0131843   0.0143809   244.0852946   0.0131627   
05930   243.9271501   0.0131757   0.0143735   244.180558   0.0131539   122.2107572   81.4738381   0.0004931   243.9887221   0.0131843   0.0143831   244.5215468   0.0131627   
05931   244.3577539   0.0131757   0.0143757   244.6122657   0.013154   122.426366   81.6175774   0.0004938   244.3628384   0.0131847   0.0143853   244.9005456   0.013163   
05932   244.7870583   0.0131758   0.0143779   245.042637   0.013154   122.6414306   81.7609538   0.0004945   244.8027623   0.0131847   0.0143875   245.34108   0.013163   
05933   245.2191503   0.0131758   0.0143801   245.4751298   0.0131541   122.8575079   81.9050053   0.0004951   245.2381919   0.0131847   0.0143897   245.7773586   0.013163   
05934   245.6495916   0.0131758   0.0143823   245.9066508   0.0131541   123.0730309   82.0486873   0.0004958   245.6738583   0.0131847   0.0143919   246.215045   0.013163   
05935   246.0765888   0.0131759   0.0143845   246.3352143   0.0131542   123.286964   82.1913093   0.0004965   246.110513   0.0131847   0.014394   246.6539369   0.013163   
05936   246.3890109   0.0131767   0.0143868   246.6492689   0.0131549   123.444227   82.2961513   0.000497   246.5754041   0.0131847   0.0143964   247.119996   0.013163   
05937   246.8151818   0.0131767   0.014389   247.0770413   0.013155   123.6579109   82.4386073   0.0004976   246.9127329   0.0131851   0.0143986   247.472808   0.0131635   
05938   247.1734224   0.0131772   0.0143913   247.4382466   0.0131555   123.8107623   82.5405082   0.0004984   247.3025229   0.0131854   0.0144008   247.8734307   0.0131637   
05939   247.5250782   0.0131776   0.0143934   247.7907933   0.0131558   123.986264   82.6575093   0.0004989   247.570666   0.0131862   0.0144029   248.1562003   0.0131645   
05940   247.8132458   0.0131784   0.0143957   248.0802499   0.0131567   124.1285494   82.7523663   0.0004994   247.9810281   0.0131864   0.0144052   248.5557728   0.0131647   
05941   248.0583939   0.0131796   0.0143981   248.3275676   0.0131579   124.251406   82.8342707   0.0004998   247.9451278   0.013189   0.0144077   248.5266112   0.0131673   
05942   241.8951157   0.0132225   0.0144101   242.1505122   0.0132007   121.1659381   80.7772921   0.0004901   242.0617036   0.0132307   0.0144197   242.5668282   0.013209   
05943   242.3291837   0.0132225   0.0144123   242.5858163   0.0132007   121.3833635   80.9222423   0.0004908   242.4904435   0.0132307   0.0144219   242.9960577   0.013209   
05944   242.7655088   0.0132225   0.0144145   243.0233159   0.0132008   121.6018676   81.0679117   0.0004915   242.9262192   0.0132307   0.0144241   243.4336981   0.013209   
05945   243.2027551   0.0132225   0.0144167   243.4617003   0.0132008   121.820791   81.2138607   0.0004922   243.3617738   0.0132307   0.0144263   243.8710024   0.013209   
05946   243.6378329   0.0132225   0.0144189   243.8979892   0.0132008   122.0386315   81.3590877   0.0004928   243.798076   0.0132307   0.0144285   244.3088389   0.013209   
05947   244.0750816   0.0132225   0.0144211   244.3363735   0.0132008   122.2575556   81.505037   0.0004935   244.2336326   0.0132307   0.0144306   244.7461431   0.013209   
05948   244.5123312   0.0132225   0.0144233   244.7747579   0.0132008   122.4764798   81.6509865   0.0004942   244.6691904   0.0132307   0.0144328   245.1834474   0.013209   
05949   244.9495819   0.0132225   0.0144255   245.2131422   0.0132008   122.6954034   81.7969356   0.0004949   245.1047492   0.0132307   0.014435   245.6207512   0.013209   
05950   245.3855917   0.0132226   0.0144277   245.650325   0.0132008   122.9137306   81.9424871   0.0004956   245.5407979   0.0132307   0.0144372   246.0580724   0.013209   
05951   245.820241   0.0132226   0.0144298   246.0861614   0.0132008   123.1313963   82.0875975   0.0004963   245.9771441   0.0132307   0.0144394   246.4961589   0.013209   
05952   246.257495   0.0132226   0.014432   246.5245458   0.0132008   123.3503203   82.2335468   0.0004969   246.4127057   0.0132307   0.0144416   246.9334633   0.013209   
05953   246.6947501   0.0132226   0.0144342   246.9629302   0.0132008   123.569244   82.379496   0.0004976   246.8482687   0.0132307   0.0144437   247.3707672   0.013209   
05954   247.1287584   0.0132226   0.0144364   247.3981447   0.0132008   123.7865614   82.5243743   0.0004983   247.2840651   0.0132307   0.0144459   247.8083031   0.013209   
05955   247.5468625   0.0132226   0.0144386   247.8171363   0.0132009   123.995968   82.6639787   0.000499   247.712734   0.0132307   0.0144481   248.2321059   0.0132091   
05956   247.9732785   0.0132226   0.0144407   248.2437128   0.0132009   124.2091075   82.8060717   0.0004996   248.1417194   0.0132307   0.0144502   248.6609447   0.0132091   
05957   248.3739231   0.0132229   0.0144429   248.6452939   0.0132011   124.4134757   82.9423171   0.0005003   248.4890414   0.0132312   0.0144524   249.0254858   0.0132095   
05958   239.0902543   0.0132861   0.0144597   239.3343633   0.0132643   119.7285876   79.8190584   0.0004857   239.1299149   0.0132949   0.0144693   239.6629573   0.0132732   
05959   239.5256709   0.0132861   0.0144619   239.7709902   0.0132643   119.9465809   79.9643873   0.0004864   239.5660015   0.0132949   0.0144715   240.1008018   0.0132732   
05960   239.9614029   0.0132861   0.014464   240.2079164   0.0132643   120.164745   80.10983   0.0004871   240.0019849   0.0132949   0.0144737   240.5385576   0.0132732   
05961   240.3977268   0.0132862   0.0144662   240.6454262   0.0132643   120.3832499   80.2554999   0.0004878   240.4376228   0.0132949   0.0144758   240.9762851   0.0132732   
05962   240.8349617   0.0132862   0.0144684   241.0838106   0.0132643   120.6021741   80.4014494   0.0004884   240.873159   0.0132949   0.014478   241.4135893   0.0132732   
05963   241.2712985   0.0132862   0.0144706   241.5213273   0.0132643   120.8206476   80.5470984   0.0004891   241.3088881   0.0132949   0.0144802   241.8512148   0.0132732   
05964   241.6651479   0.0132864   0.0144729   241.9173174   0.0132646   121.0185499   80.6790333   0.0004897   241.7573166   0.0132949   0.0144824   242.3013312   0.0132732   
05965   242.1017233   0.0132864   0.0144751   242.3550516   0.0132646   121.2371663   80.8247775   0.0004904   242.1930575   0.0132949   0.0144846   242.7388267   0.0132732   
05966   242.5389647   0.0132864   0.0144772   242.793436   0.0132646   121.4560901   80.9707267   0.0004911   242.6285988   0.0132949   0.0144868   243.1761311   0.0132732   
05967   242.9539978   0.0132866   0.0144795   243.2100894   0.0132648   121.663973   81.1093154   0.0004918   243.0708782   0.0132949   0.014489   243.6199843   0.0132732   
05968   243.3901225   0.0132866   0.0144817   243.6473626   0.0132648   121.8823156   81.2548771   0.0004924   243.5067693   0.0132949   0.0144912   244.0576322   0.0132732   
05969   243.8273679   0.0132866   0.0144838   244.0857469   0.0132648   122.1012393   81.4008262   0.0004931   243.9423135   0.0132949   0.0144934   244.4949365   0.0132732   
05970   244.2646144   0.0132866   0.014486   244.5241312   0.0132648   122.3201635   81.5467757   0.0004938   244.3778587   0.0132949   0.0144956   244.9322406   0.0132732   
05971   244.7007105   0.0132866   0.0144882   244.9613628   0.0132648   122.5384897   81.6923265   0.0004945   244.8137656   0.0132949   0.0144978   245.3698939   0.0132732   
05972   245.1372586   0.0132866   0.0144904   245.3990442   0.0132648   122.7570486   81.8380324   0.0004952   245.2495323   0.0132949   0.0144999   245.8074116   0.0132732   
05973   245.5737351   0.0132866   0.0144926   245.8366679   0.0132648   122.9755947   81.9837298   0.0004959   245.6853214   0.0132949   0.0145021   246.2449327   0.0132732   
05974   245.9432055   0.013287   0.0144949   246.2084574   0.0132652   123.1618012   82.1078675   0.0004964   246.0433294   0.0132954   0.0145044   246.5946417   0.0132737   
05975   246.3788282   0.013287   0.0144971   246.6452516   0.0132652   123.3799454   82.253297   0.0004971   246.4793726   0.0132954   0.0145066   247.0324415   0.0132737   
05976   246.8154111   0.0132871   0.0144993   247.0829885   0.0132652   123.5985289   82.3990193   0.0004978   246.9154605   0.0132954   0.0145088   247.4691822   0.0132737   
05977   247.2021393   0.0132871   0.0145012   247.4665505   0.0132653   123.7905932   82.5270621   0.0004984   247.3196517   0.0132954   0.0145108   247.8681353   0.0132737   
05978   247.6272617   0.0132871   0.0145034   247.892977   0.0132653   124.0033993   82.6689329   0.0004991   247.7587783   0.0132954   0.014513   248.3089197   0.0132737   
05979   248.0578057   0.0132872   0.0145056   248.3256083   0.0132654   124.2194254   82.8129502   0.0004998   248.1943582   0.0132954   0.0145152   248.7463532   0.0132737   
05980   248.0240584   0.0132873   0.0145056   248.2830292   0.0132655   124.198144   82.7987626   0.0004997   248.2194055   0.0132954   0.0145153   248.7504511   0.0132737   
05981   248.4430418   0.0132873   0.0145077   248.7026466   0.0132655   124.4079133   82.9386089   0.0005003   248.6418578   0.0132954   0.0145174   249.173381   0.0132737   
05982   248.8253694   0.0132875   0.0145098   249.0838377   0.0132657   124.5991096   83.0660731   0.000501   249.0601589   0.0132954   0.0145195   249.5914875   0.0132737   
05983   249.141231   0.0132882   0.014512   249.4019145   0.0132663   124.757729   83.1718194   0.0005015   249.2661643   0.0132965   0.0145217   249.8202248   0.0132748   
05984   249.4818859   0.0132886   0.0145142   249.7405601   0.0132668   124.9182255   83.278817   0.000502   249.7036624   0.0132965   0.0145239   250.2594805   0.0132748   
05985   249.5877709   0.0132891   0.0145152   249.8478185   0.0132673   124.6984867   83.1323245   0.0005118   249.7423719   0.0132974   0.0145249   250.2591041   0.0132757   
05986   249.9444849   0.0132893   0.0145172   250.2055776   0.0132675   124.8699908   83.2466605   0.0005124   250.0437703   0.0132979   0.0145269   250.5559801   0.0132762   
05987   249.7641284   0.0132907   0.0145177   250.0310914   0.0132689   124.7848904   83.1899269   0.0005122   249.9672582   0.0132987   0.0145273   250.4846272   0.013277   
05988   250.0393974   0.0132917   0.0145201   250.3095829   0.0132699   124.9241549   83.2827699   0.0005126   250.3806745   0.013299   0.0145297   250.9117202   0.0132773   
05989   250.4438517   0.0132919   0.0145223   250.7153525   0.0132701   125.1267357   83.4178238   0.0005132   250.8174341   0.013299   0.0145319   251.3393471   0.0132773   
05990   244.3551237   0.0133344   0.0145343   244.6106646   0.0133126   122.062738   81.3751587   0.0005044   244.4663088   0.0133432   0.014544   244.8545382   0.0133214   
05991   244.7923828   0.0133344   0.0145365   245.049049   0.0133126   122.2816618   81.5211078   0.0005051   244.9018728   0.0133432   0.0145462   245.291842   0.0133214   
05992   245.2181693   0.0133345   0.0145387   245.4761659   0.0133127   122.4948498   81.6632332   0.0005058   245.3408555   0.0133432   0.0145484   245.732446   0.0133214   
05993   245.6211353   0.0133347   0.0145409   245.8809672   0.0133129   122.6970412   81.7980275   0.0005064   245.7862759   0.0133432   0.0145506   246.1811263   0.0133214   
05994   246.0314868   0.0133349   0.0145432   246.2930553   0.013313   122.9028167   81.9352111   0.000507   246.2297814   0.0133432   0.0145528   246.6267653   0.0133214   
05995   246.4654739   0.0133349   0.0145454   246.7281929   0.0133131   123.120116   82.0800773   0.0005077   246.6663476   0.0133432   0.014555   247.065106   0.0133214   
05996   246.9027411   0.0133349   0.0145476   247.1665773   0.0133131   123.3390401   82.2260267   0.0005084   247.1019166   0.0133432   0.0145572   247.5024096   0.0133214   
05997   247.335612   0.0133349   0.0145498   247.6008456   0.0133131   123.55591   82.3706067   0.0005091   247.5377948   0.0133432   0.0145594   247.9407897   0.0133214   
05998   247.76275   0.013335   0.014552   248.0293286   0.0133132   123.7698918   82.5132612   0.0005098   247.9763966   0.0133432   0.0145616   248.3811139   0.0133214   
05999   248.1991132   0.013335   0.0145541   248.4668158   0.0133132   123.9883614   82.6589076   0.0005104   248.4122447   0.0133432   0.0145638   248.8186923   0.0133214   
06000   248.6325777   0.013335   0.0145563   248.9012729   0.0133132   124.2053115   82.803541   0.0005111   248.8481885   0.0133432   0.0145659   249.2564643   0.0133214   
06001   249.0656172   0.0133351   0.0145585   249.3354977   0.0133132   124.4221535   82.9481023   0.0005118   249.2850458   0.0133432   0.0145681   249.6950315   0.0133214   
